Ag C  H  O 
 1.0000000000000000
     9.2349610000000002    0.0000000000000000    0.0000000000000000
     7.3879690000000000    9.0483770000000003    0.0000000000000000
     0.0000000000000000    0.0000000000000000   37.5872940000000000
 Ag  C   H   O  
  40   1   3   1
Selective dynamics
Cartesian
  1.6930764621686449  0.1885080218820230 14.3938680139574622   F   F   F
  3.5400686115834712  2.4506021843783592 14.3938680139574622   F   F   F
  8.1575489851205365  4.3356806531253058 15.2369007337653315   F   F   F
  6.3105568357057100  2.0735864906289692 15.2369007337653315   F   F   F
 10.9280372092427758  3.9586649593759167 16.0799334535732115   F   F   F
  9.0810450598279502  1.6965707968795809 16.0799334535732115   F   F   F
  4.4635646862908844  3.5816492656265275 16.9229661733810914   F   F   F
  2.6165725368760588  1.3195551031301911 16.9229661733810914   F   F   F
  7.2340529104131255  3.2046335718771388 17.7659988931889643   T   T   T
  5.3870607609982981  0.9425394093808014 17.7659988931889643   T   T   T
 10.0045411345353621  2.8276178781277479 18.6090316129968478   T   T   T
  8.1575489851205383  0.5655237156314126 18.6090316129968478   T   T   T
  3.5400686115834712  2.4506021843783592 19.4520643328047242   T   T   T
  1.6930764621686449  0.1885080218820230 19.4520643328047242   T   T   T
  6.3105568357057109  2.0735864906289692 20.2950970526126007   T   T   T
  8.1575489851205383  4.3356806531253058 20.2950970526126007   T   T   T
  9.0810450598279520  1.6965707968795809 21.1381297724204735   T   T   T
 10.9280372092427758  3.9586649593759167 21.1381297724204735   T   T   T
  2.6165725368760597  1.3195551031301911 21.9811624922283499   T   T   T
  4.4635646862908871  3.5816492656265275 21.9811624922283499   T   T   T
  5.3870607609982972  4.7126963468746954 14.3938680139574622   F   F   F
  7.2340529104131237  6.9747905093710321 14.3938680139574622   F   F   F
 11.8515332839501877  8.8598689781179765 15.2369007337653315   F   F   F
 10.0045411345353621  6.5977748156216425 15.2369007337653315   F   F   F
 14.6220215080724287  8.4828532843685878 16.0799334535732115   F   F   F
 12.7750293586576031  6.2207591218722529 16.0799334535732115   F   F   F
  8.1575489851205365  8.1058375906191991 16.9229661733810914   F   F   F
  6.3105568357057118  5.8437434281228642 16.9229661733810914   F   F   F
 10.9280372092427775  7.7288218968698104 17.7659988931889643   T   T   T
  9.0810450598279502  5.4667277343734737 17.7659988931889643   T   T   T
 13.6985254333650150  7.3518062031204208 18.6090316129968478   T   T   T
 11.8515332839501912  5.0897120406240859 18.6090316129968478   T   T   T
  7.2340529104131237  6.9747905093710321 19.4520643328047242   T   T   T
  5.3870607609982972  4.7126963468746954 19.4520643328047242   T   T   T
 10.0045411345353621  6.5977748156216416 20.2950970526126007   T   T   T
 11.8515332839501895  8.8598689781179765 20.2950970526126007   T   T   T
 12.7750293586576067  6.2207591218722529 21.1381297724204735   T   T   T
 14.6220215080724287  8.4828532843685878 21.1381297724204735   T   T   T
  6.3105568357057127  5.8437434281228633 21.9811624922283499   T   T   T
  8.1575489851205401  8.1058375906191991 21.9811624922283499   T   T   T
  7.2340529104131246  1.8165134790494752 22.2950970526126007   T   T   T
  8.2591006621127789  1.4049627297882603 22.1885008535189172   T   T   T
  6.7596617669193488  1.3875898287927457 23.1934259860425378   T   T   T
  6.6695406450499757  1.4929210724632176 21.3921477600898413   T   T   T
  7.2340529104131246  3.2046335718771379 22.2950970526126007   T   T   T
