Ag C  H  O 
 1.0000000000000000
     9.2349610000000002    0.0000000000000000    0.0000000000000000
     7.3879690000000000    9.0483770000000003    0.0000000000000000
     0.0000000000000000    0.0000000000000000   37.5872940000000000
 Ag  C   H   O  
  40   1   3   1
Selective dynamics
Cartesian
  1.1115052626308828  0.2314243444045312 13.8122447250640015   F   F   F
  2.9584974120457090  2.4935185069008674 13.8122447250640015   F   F   F
  7.5759777855827739  4.3785969756478140 14.6552774448718708   F   F   F
  5.7289856361679474  2.1165028131514774 14.6552774448718708   F   F   F
 10.3464660097050150  4.0015812818984244 15.4983101646797508   F   F   F
  8.4994738602901894  1.7394871194020891 15.4983101646797508   F   F   F
  3.8819934867531218  3.6245655881490357 16.3413428844876307   F   F   F
  2.0350013373382967  1.3624714256526993 16.3413428844876307   F   F   F
  6.6524817108753629  3.2475498943996470 17.1843756042955036   T   T   T
  4.8054895614605364  0.9854557319033096 17.1843756042955036   T   T   T
  9.4229699349976013  2.8705342006502561 18.0274083241033871   T   T   T
  7.5759777855827766  0.6084400381539208 18.0274083241033871   T   T   T
  2.9584974120457090  2.4935185069008674 18.8704410439112635   T   T   T
  1.1115052626308828  0.2314243444045312 18.8704410439112635   T   T   T
  5.7289856361679483  2.1165028131514774 19.7134737637191400   T   T   T
  7.5759777855827757  4.3785969756478140 19.7134737637191400   T   T   T
  8.4994738602901911  1.7394871194020891 20.5565064835270128   T   T   T
 10.3464660097050150  4.0015812818984244 20.5565064835270128   T   T   T
  2.0350013373382980  1.3624714256526993 21.3995392033348892   T   T   T
  3.8819934867531245  3.6245655881490357 21.3995392033348892   T   T   T
  4.8054895614605355  4.7556126693972036 13.8122447250640015   F   F   F
  6.6524817108753611  7.0177068318935403 13.8122447250640015   F   F   F
 11.2699620844124269  8.9027853006404847 14.6552774448718708   F   F   F
  9.4229699349976013  6.6406911381441507 14.6552774448718708   F   F   F
 14.0404503085346679  8.5257696068910960 15.4983101646797508   F   F   F
 12.1934581591198423  6.2636754443947611 15.4983101646797508   F   F   F
  7.5759777855827748  8.1487539131417073 16.3413428844876307   F   F   F
  5.7289856361679492  5.8866597506453724 16.3413428844876307   F   F   F
 10.3464660097050167  7.7717382193923186 17.1843756042955036   T   T   T
  8.4994738602901894  5.5096440568959819 17.1843756042955036   T   T   T
 13.1169542338272542  7.3947225256429290 18.0274083241033871   T   T   T
 11.2699620844124304  5.1326283631465941 18.0274083241033871   T   T   T
  6.6524817108753611  7.0177068318935403 18.8704410439112635   T   T   T
  4.8054895614605355  4.7556126693972036 18.8704410439112635   T   T   T
  9.4229699349976013  6.6406911381441498 19.7134737637191400   T   T   T
 11.2699620844124286  8.9027853006404847 19.7134737637191400   T   T   T
 12.1934581591198459  6.2636754443947611 20.5565064835270128   T   T   T
 14.0404503085346679  8.5257696068910960 20.5565064835270128   T   T   T
  5.7289856361679501  5.8866597506453715 21.3995392033348892   T   T   T
  7.5759777855827775  8.1487539131417073 21.3995392033348892   T   T   T
  7.6069490181647348  0.8600272271062090 22.7341512907286472   T   T   T
  8.4312881548993754  0.1455916993595148 22.5304197848585588   T   T   T
  7.2646944379934402  0.7358881267505959 23.7750492749359985   T   T   T
  6.7787496986500466  0.5908772656390751 22.0410800435897123   T   T   T
  7.9726183665815418  2.1659891857376605 22.4381332467721855   T   T   T
