Ag C  H  O 
 1.0000000000000000
     9.2349610000000002    0.0000000000000000    0.0000000000000000
     7.3879690000000000    9.0483770000000003    0.0000000000000000
     0.0000000000000000    0.0000000000000000   37.5872940000000000
 Ag  C   H   O  
  40   1   3   1
Selective dynamics
Cartesian
  1.6930764621686449  0.1885080218820230 13.4698238169943174   F   F   F
  3.5400686115834712  2.4506021843783592 13.4698238169943174   F   F   F
  8.1575489851205365  4.3356806531253058 14.3128565368021903   F   F   F
  6.3105568357057100  2.0735864906289692 14.3128565368021903   F   F   F
 10.9280372092427758  3.9586649593759167 15.1558892566100702   F   F   F
  9.0810450598279502  1.6965707968795809 15.1558892566100702   F   F   F
  4.4635646862908844  3.5816492656265275 15.9989219764179502   F   F   F
  2.6165725368760588  1.3195551031301911 15.9989219764179502   F   F   F
  7.2340529104131255  3.2046335718771388 16.8419546962258231   T   T   T
  5.3870607609982981  0.9425394093808014 16.8419546962258231   T   T   T
 10.0045411345353621  2.8276178781277479 17.6849874160337066   T   T   T
  8.1575489851205383  0.5655237156314126 17.6849874160337066   T   T   T
  3.5400686115834712  2.4506021843783592 18.5280201358415830   T   T   T
  1.6930764621686449  0.1885080218820230 18.5280201358415830   T   T   T
  6.3105568357057109  2.0735864906289692 19.3710528556494594   T   T   T
  8.1575489851205383  4.3356806531253058 19.3710528556494594   T   T   T
  9.0810450598279520  1.6965707968795809 20.2140855754573323   T   T   T
 10.9280372092427758  3.9586649593759167 20.2140855754573323   T   T   T
  2.6165725368760597  1.3195551031301911 21.0571182952652087   T   T   T
  4.4635646862908871  3.5816492656265275 21.0571182952652087   T   T   T
  5.3870607609982972  4.7126963468746954 13.4698238169943174   F   F   F
  7.2340529104131237  6.9747905093710321 13.4698238169943174   F   F   F
 11.8515332839501877  8.8598689781179765 14.3128565368021903   F   F   F
 10.0045411345353621  6.5977748156216425 14.3128565368021903   F   F   F
 14.6220215080724287  8.4828532843685878 15.1558892566100702   F   F   F
 12.7750293586576031  6.2207591218722529 15.1558892566100702   F   F   F
  8.1575489851205365  8.1058375906191991 15.9989219764179502   F   F   F
  6.3105568357057118  5.8437434281228642 15.9989219764179502   F   F   F
 10.9280372092427775  7.7288218968698104 16.8419546962258231   T   T   T
  9.0810450598279502  5.4667277343734737 16.8419546962258231   T   T   T
 13.6985254333650150  7.3518062031204208 17.6849874160337066   T   T   T
 11.8515332839501912  5.0897120406240859 17.6849874160337066   T   T   T
  7.2340529104131237  6.9747905093710321 18.5280201358415830   T   T   T
  5.3870607609982972  4.7126963468746954 18.5280201358415830   T   T   T
 10.0045411345353621  6.5977748156216416 19.3710528556494594   T   T   T
 11.8515332839501895  8.8598689781179765 19.3710528556494594   T   T   T
 12.7750293586576067  6.2207591218722529 20.2140855754573323   T   T   T
 14.6220215080724287  8.4828532843685878 20.2140855754573323   T   T   T
  6.3105568357057127  5.8437434281228633 21.0571182952652087   T   T   T
  8.1575489851205401  8.1058375906191991 21.0571182952652087   T   T   T
  9.1215524430761743  3.5408010519986330 23.4064293061174844   T   T   T
  9.9489521080272318  3.3376008355220321 24.1174701830056826   T   T   T
  8.7770880556804105  4.5805425898022367 23.5340974219260808   T   T   T
  8.2960896647866917  2.8450188602688318 23.6769878238975693   T   T   T
  9.4833148100444493  3.2486083709857958 22.0985192101552563   T   T   T
