Ag C  H  O 
 1.0000000000000000
     9.2349610000000002    0.0000000000000000    0.0000000000000000
     7.3879690000000000    9.0483770000000003    0.0000000000000000
     0.0000000000000000    0.0000000000000000   37.5872940000000000
 Ag  C   H   O  
  40   1   3   1
Selective dynamics
Cartesian
  1.7431480393636523  0.2498329282866152 13.3854464137648357   F   F   F
  3.5901401887784785  2.5119270907829514 13.3854464137648357   F   F   F
  8.2076205623155438  4.3970055595298980 14.2284791335727050   F   F   F
  6.3606284129007173  2.1349113970335614 14.2284791335727050   F   F   F
 10.9781087864377831  4.0199898657805084 15.0715118533805850   F   F   F
  9.1311166370229575  1.7578957032841731 15.0715118533805850   F   F   F
  4.5136362634858918  3.6429741720311197 15.9145445731884649   F   F   F
  2.6666441140710662  1.3808800095347833 15.9145445731884649   F   F   F
  7.2841244876081328  3.2659584782817310 16.7575772929963378   T   T   T
  5.4371323381933054  1.0038643157853935 16.7575772929963378   T   T   T
 10.0546127117303694  2.8889427845323401 17.6006100128042213   T   T   T
  8.2076205623155456  0.6268486220360048 17.6006100128042213   T   T   T
  3.5901401887784785  2.5119270907829514 18.4436427326120977   T   T   T
  1.7431480393636523  0.2498329282866152 18.4436427326120977   T   T   T
  6.3606284129007182  2.1349113970335614 19.2866754524199742   T   T   T
  8.2076205623155456  4.3970055595298980 19.2866754524199742   T   T   T
  9.1311166370229593  1.7578957032841731 20.1297081722278470   T   T   T
 10.9781087864377831  4.0199898657805084 20.1297081722278470   T   T   T
  2.6666441140710671  1.3808800095347833 20.9727408920357234   T   T   T
  4.5136362634858944  3.6429741720311197 20.9727408920357234   T   T   T
  5.4371323381933045  4.7740212532792876 13.3854464137648357   F   F   F
  7.2841244876081310  7.0361154157756243 13.3854464137648357   F   F   F
 11.9016048611451950  8.9211938845225696 14.2284791335727050   F   F   F
 10.0546127117303694  6.6590997220262347 14.2284791335727050   F   F   F
 14.6720930852674361  8.5441781907731809 15.0715118533805850   F   F   F
 12.8251009358526105  6.2820840282768451 15.0715118533805850   F   F   F
  8.2076205623155438  8.1671624970237922 15.9145445731884649   F   F   F
  6.3606284129007191  5.9050683345274564 15.9145445731884649   F   F   F
 10.9781087864377849  7.7901468032744026 16.7575772929963378   T   T   T
  9.1311166370229575  5.5280526407780659 16.7575772929963378   T   T   T
 13.7485970105600224  7.4131311095250130 17.6006100128042213   T   T   T
 11.9016048611451986  5.1510369470286781 17.6006100128042213   T   T   T
  7.2841244876081310  7.0361154157756243 18.4436427326120977   T   T   T
  5.4371323381933045  4.7740212532792876 18.4436427326120977   T   T   T
 10.0546127117303694  6.6590997220262338 19.2866754524199742   T   T   T
 11.9016048611451968  8.9211938845225696 19.2866754524199742   T   T   T
 12.8251009358526140  6.2820840282768451 20.1297081722278470   T   T   T
 14.6720930852674361  8.5441781907731809 20.1297081722278470   T   T   T
  6.3606284129007200  5.9050683345274555 20.9727408920357234   T   T   T
  8.2076205623155474  8.1671624970237922 20.9727408920357234   T   T   T
  3.7187572135518421  0.8177215411588499 23.1446668193894460   T   T   T
  2.6307833045464415  0.6130462924435083 23.0679825444041313   T   T   T
  4.2680041050127988  0.1271831154774307 22.4832275838657587   T   T   T
  4.0029896691648217  0.6170120356520368 24.2018475862351643   T   T   T
  4.0105397582552245  2.1515846026600283 22.8945674953579754   T   T   T
