Ag C  H  O 
 1.0000000000000000
    11.6814040000000006    0.0000000000000000    0.0000000000000000
     0.0000000000000000    8.2599999999999998    0.0000000000000000
     0.0000000000000000    0.0000000000000000   37.3008779999999973
 Ag  C   H   O  
  48   1   3   1
Selective dynamics
Cartesian
 -0.0000000126008821  1.0324999999999998 14.2809235269845907   F   F   F
  4.3805264968497788  3.0974999999999997 15.7410990301348157   F   F   F
  1.4601754905493385  3.0974999999999997 15.7410990301348157   F   F   F
  2.9203509936995591  1.0324999999999998 14.2809235269845907   F   F   F
  2.9203509936995591  1.0324999999999998 17.2012745332850265   F   F   F
  1.4601754905493385  3.0974999999999997 18.6614500364352551   T   T   T
  4.3805264968497797  3.0974999999999997 18.6614500364352551   T   T   T
 -0.0000000126008821  1.0324999999999998 17.2012745332850372   F   F   F
  5.8407019999999994  1.0324999999999998 20.1216255395854695   T   T   T
  4.3805264968497797  3.0974999999999997 21.5818010427356946   T   T   T
  1.4601754905493385  3.0974999999999997 21.5818010427356946   T   T   T
  2.9203509936995578  1.0324999999999998 20.1216255395854695   T   T   T
 -0.0000000126008821  5.1624999999999996 14.2809235269845907   F   F   F
  4.3805264968497788  7.2275000000000000 15.7410990301348157   F   F   F
  1.4601754905493385  7.2275000000000000 15.7410990301348157   F   F   F
  2.9203509936995591  5.1624999999999996 14.2809235269845907   F   F   F
  2.9203509936995591  5.1624999999999996 17.2012745332850265   F   F   F
  1.4601754905493385  7.2275000000000000 18.6614500364352551   T   T   T
  4.3805264968497797  7.2275000000000000 18.6614500364352551   T   T   T
 -0.0000000126008821  5.1624999999999996 17.2012745332850372   F   F   F
  5.8407019999999994  5.1624999999999996 20.1216255395854695   T   T   T
  4.3805264968497797  7.2275000000000000 21.5818010427356946   T   T   T
  1.4601754905493385  7.2275000000000000 21.5818010427356946   T   T   T
  2.9203509936995578  5.1624999999999996 20.1216255395854695   T   T   T
  5.8407020000000003  1.0324999999999998 14.2809235269845907   F   F   F
 10.2212285094506612  3.0974999999999997 15.7410990301348157   F   F   F
  7.3008775031502209  3.0974999999999997 15.7410990301348157   F   F   F
  8.7610530063004415  1.0324999999999998 14.2809235269845907   F   F   F
  8.7610530063004415  1.0324999999999998 17.2012745332850265   F   F   F
  7.3008775031502209  3.0974999999999997 18.6614500364352551   T   T   T
 10.2212285094506612  3.0974999999999997 18.6614500364352551   T   T   T
  5.8407020000000003  1.0324999999999998 17.2012745332850372   F   F   F
 11.6814040126008827  1.0324999999999998 20.1216255395854695   T   T   T
 10.2212285094506612  3.0974999999999997 21.5818010427356946   T   T   T
  7.3008775031502209  3.0974999999999997 21.5818010427356946   T   T   T
  8.7610530063004397  1.0324999999999998 20.1216255395854695   T   T   T
  5.8407020000000003  5.1624999999999996 14.2809235269845907   F   F   F
 10.2212285094506612  7.2275000000000000 15.7410990301348157   F   F   F
  7.3008775031502209  7.2275000000000000 15.7410990301348157   F   F   F
  8.7610530063004415  5.1624999999999996 14.2809235269845907   F   F   F
  8.7610530063004415  5.1624999999999996 17.2012745332850265   F   F   F
  7.3008775031502209  7.2275000000000000 18.6614500364352551   T   T   T
 10.2212285094506612  7.2275000000000000 18.6614500364352551   T   T   T
  5.8407020000000003  5.1624999999999996 17.2012745332850372   F   F   F
 11.6814040126008827  5.1624999999999996 20.1216255395854695   T   T   T
 10.2212285094506612  7.2275000000000000 21.5818010427356946   T   T   T
  7.3008775031502209  7.2275000000000000 21.5818010427356946   T   T   T
  8.7610530063004397  5.1624999999999996 20.1216255395854695   T   T   T
  4.3805264968497788  2.4206200928276624 22.1216255395854695   T   T   T
  3.3554787451501245  2.8321708420888774 22.0150293404917861   T   T   T
  4.8549176403435546  2.8495437430843920 23.0199544730154066   T   T   T
  4.9450387622129277  2.7442124994139201 21.2186762470627066   T   T   T
  4.3805264968497788  1.0324999999999998 22.1216255395854695   T   T   T
