Ag C  H  O 
 1.0000000000000000
     9.2349610000000002    0.0000000000000000    0.0000000000000000
     7.3879690000000000    9.0483770000000003    0.0000000000000000
     0.0000000000000000    0.0000000000000000   37.5872940000000000
 Ag  C   H   O  
  40   1   3   1
Selective dynamics
Cartesian
  2.2909580667003930  0.1885080218820230 13.3854464137648357   F   F   F
  4.1379502161152191  2.4506021843783592 13.3854464137648357   F   F   F
  8.7554305896522848  4.3356806531253058 14.2284791335727050   F   F   F
  6.9084384402374575  2.0735864906289692 14.2284791335727050   F   F   F
 11.5259188137745241  3.9586649593759167 15.0715118533805850   F   F   F
  9.6789266643596985  1.6965707968795809 15.0715118533805850   F   F   F
  5.0614462908226319  3.5816492656265275 15.9145445731884649   F   F   F
  3.2144541414078072  1.3195551031301911 15.9145445731884649   F   F   F
  7.8319345149448729  3.2046335718771388 16.7575772929963378   T   T   T
  5.9849423655300464  0.9425394093808014 16.7575772929963378   T   T   T
 10.6024227390671104  2.8276178781277479 17.6006100128042213   T   T   T
  8.7554305896522866  0.5655237156314126 17.6006100128042213   T   T   T
  4.1379502161152191  2.4506021843783592 18.4436427326120977   T   T   T
  2.2909580667003930  0.1885080218820230 18.4436427326120977   T   T   T
  6.9084384402374592  2.0735864906289692 19.2866754524199742   T   T   T
  8.7554305896522866  4.3356806531253058 19.2866754524199742   T   T   T
  9.6789266643597003  1.6965707968795809 20.1297081722278470   T   T   T
 11.5259188137745241  3.9586649593759167 20.1297081722278470   T   T   T
  3.2144541414078081  1.3195551031301911 20.9727408920357234   T   T   T
  5.0614462908226354  3.5816492656265275 20.9727408920357234   T   T   T
  5.9849423655300455  4.7126963468746954 13.3854464137648357   F   F   F
  7.8319345149448711  6.9747905093710321 13.3854464137648357   F   F   F
 12.4494148884819360  8.8598689781179765 14.2284791335727050   F   F   F
 10.6024227390671104  6.5977748156216425 14.2284791335727050   F   F   F
 15.2199031126041771  8.4828532843685878 15.0715118533805850   F   F   F
 13.3729109631893515  6.2207591218722529 15.0715118533805850   F   F   F
  8.7554305896522848  8.1058375906191991 15.9145445731884649   F   F   F
  6.9084384402374592  5.8437434281228642 15.9145445731884649   F   F   F
 11.5259188137745259  7.7288218968698104 16.7575772929963378   T   T   T
  9.6789266643596985  5.4667277343734737 16.7575772929963378   T   T   T
 14.2964070378967634  7.3518062031204208 17.6006100128042213   T   T   T
 12.4494148884819396  5.0897120406240859 17.6006100128042213   T   T   T
  7.8319345149448711  6.9747905093710321 18.4436427326120977   T   T   T
  5.9849423655300455  4.7126963468746954 18.4436427326120977   T   T   T
 10.6024227390671104  6.5977748156216416 19.2866754524199742   T   T   T
 12.4494148884819378  8.8598689781179765 19.2866754524199742   T   T   T
 13.3729109631893550  6.2207591218722529 20.1297081722278470   T   T   T
 15.2199031126041771  8.4828532843685878 20.1297081722278470   T   T   T
  6.9084384402374610  5.8437434281228633 20.9727408920357234   T   T   T
  8.7554305896522884  8.1058375906191991 20.9727408920357234   T   T   T
  4.8501323302953470  3.4241227577566145 23.1446668193894460   T   T   T
  5.9381062393007475  3.6287980064719561 23.0679825444041313   T   T   T
  4.3008854388343902  4.1146611834380336 22.4832275838657587   T   T   T
  4.5658998746823674  3.6248322632634276 24.2018475862351643   T   T   T
  4.5583497855919646  2.0902596962554361 22.8945674953579754   T   T   T
