Ag C  H  O 
 1.0000000000000000
     9.2349610000000002    0.0000000000000000    0.0000000000000000
     7.3879690000000000    9.0483770000000003    0.0000000000000000
     0.0000000000000000    0.0000000000000000   37.5872940000000000
 Ag  C   H   O  
  40   1   3   1
Selective dynamics
Cartesian
  1.5236082026072482  0.1938948294685972 14.0758783104788190   F   F   F
  3.3706003520220742  2.4559889919649334 14.0758783104788190   F   F   F
  7.9880807255591399  4.3410674607118800 14.9189110302866901   F   F   F
  6.1410885761443126  2.0789732982155433 14.9189110302866901   F   F   F
 10.7585689496813792  3.9640517669624908 15.7619437500945700   F   F   F
  8.9115768002665536  1.7019576044661551 15.7619437500945700   F   F   F
  4.2940964267294870  3.5870360732131017 16.6049764699024500   F   F   F
  2.4471042773146623  1.3249419107167653 16.6049764699024500   F   F   F
  7.0645846508517280  3.2100203794637130 17.4480091897103229   T   T   T
  5.2175925014369016  0.9479262169673756 17.4480091897103229   T   T   T
  9.8350728749739655  2.8330046857143221 18.2910419095182064   T   T   T
  7.9880807255591417  0.5709105232179867 18.2910419095182064   T   T   T
  3.3706003520220742  2.4559889919649334 19.1340746293260828   T   T   T
  1.5236082026072482  0.1938948294685972 19.1340746293260828   T   T   T
  6.1410885761443144  2.0789732982155433 19.9771073491339592   T   T   T
  7.9880807255591417  4.3410674607118800 19.9771073491339592   T   T   T
  8.9115768002665554  1.7019576044661551 20.8201400689418321   T   T   T
 10.7585689496813792  3.9640517669624908 20.8201400689418321   T   T   T
  2.4471042773146632  1.3249419107167653 21.6631727887497085   T   T   T
  4.2940964267294905  3.5870360732131017 21.6631727887497085   T   T   T
  5.2175925014369007  4.7180831544612696 14.0758783104788190   F   F   F
  7.0645846508517263  6.9801773169576062 14.0758783104788190   F   F   F
 11.6820650243887911  8.8652557857045515 14.9189110302866901   F   F   F
  9.8350728749739655  6.6031616232082166 14.9189110302866901   F   F   F
 14.4525532485110322  8.4882400919551628 15.7619437500945700   F   F   F
 12.6055610990962066  6.2261459294588271 15.7619437500945700   F   F   F
  7.9880807255591399  8.1112243982057741 16.6049764699024500   F   F   F
  6.1410885761443144  5.8491302357094384 16.6049764699024500   F   F   F
 10.7585689496813810  7.7342087044563845 17.4480091897103229   T   T   T
  8.9115768002665536  5.4721145419600479 17.4480091897103229   T   T   T
 13.5290571738036185  7.3571930107069949 18.2910419095182064   T   T   T
 11.6820650243887947  5.0950988482106601 18.2910419095182064   T   T   T
  7.0645846508517263  6.9801773169576062 19.1340746293260828   T   T   T
  5.2175925014369007  4.7180831544612696 19.1340746293260828   T   T   T
  9.8350728749739655  6.6031616232082158 19.9771073491339592   T   T   T
 11.6820650243887929  8.8652557857045515 19.9771073491339592   T   T   T
 12.6055610990962101  6.2261459294588271 20.8201400689418321   T   T   T
 14.4525532485110322  8.4882400919551628 20.8201400689418321   T   T   T
  6.1410885761443161  5.8491302357094375 21.6631727887497085   T   T   T
  7.9880807255591435  8.1112243982057741 21.6631727887497085   T   T   T
  7.0790947174831818  0.7466429056179784 22.5235412694829833   T   T   T
  8.0191852149230094  0.1831212142954488 22.3499531875892750   T   T   T
  6.6691951735239670  0.4781213580496608 23.5114156895211792   T   T   T
  6.3676136596635509  0.4235784246769789 21.7309962463257769   T   T   T
  7.2623290764863491  2.1138531227954598 22.3684968118649188   T   T   T
