Ag
 1.0000000000000000
     9.2349607470741315    0.0000000000000000    0.0000000000000000
     7.3879685976593050    9.0483766499853449    0.0000000000000000
     0.0000000000000000    0.0000000000000000   37.5872944782708913
 Ag 
  40
Selective dynamics
Direct
  0.0000000000000000  0.0000000000000000  0.3990710214237808   F   F   F
  0.0000000000000000  0.2500000000000000  0.3990710214237808   F   F   F
  0.3333333333333333  0.4583333333333333  0.4214996833296072   F   F   F
  0.3333333333333333  0.2083333333333333  0.4214996833296072   F   F   F
  0.6666666666666666  0.4166666666666667  0.4439283452354338   F   F   F
  0.6666666666666667  0.1666666666666667  0.4439283452354338   F   F   F
  0.0000000000000000  0.3750000000000000  0.4663570071412603   F   F   F
  0.0000000000000001  0.1250000000000000  0.4663570071412603   F   F   F
  0.3333333333333335  0.3333333333333334  0.4887856690470867   T   T   T
  0.3333333333333335  0.0833333333333333  0.4887856690470867   T   T   T
  0.6666666666666666  0.2916666666666666  0.5112143309529134   T   T   T
  0.6666666666666669  0.0416666666666667  0.5112143309529134   T   T   T
  0.0000000000000000  0.2500000000000000  0.5336429928587398   T   T   T
  0.0000000000000000  0.0000000000000000  0.5336429928587398   T   T   T
  0.3333333333333334  0.2083333333333333  0.5560716547645663   T   T   T
  0.3333333333333335  0.4583333333333333  0.5560716547645663   T   T   T
  0.6666666666666670  0.1666666666666667  0.5785003166703927   T   T   T
  0.6666666666666666  0.4166666666666667  0.5785003166703927   T   T   T
  0.0000000000000002  0.1250000000000000  0.6009289785762192   T   T   T
  0.0000000000000003  0.3750000000000000  0.6009289785762192   T   T   T
  0.0000000000000000  0.5000000000000000  0.3990710214237808   F   F   F
 -0.0000000000000000  0.7500000000000000  0.3990710214237808   F   F   F
  0.3333333333333334  0.9583333333333331  0.4214996833296072   F   F   F
  0.3333333333333333  0.7083333333333334  0.4214996833296072   F   F   F
  0.6666666666666667  0.9166666666666666  0.4439283452354338   F   F   F
  0.6666666666666669  0.6666666666666666  0.4439283452354338   F   F   F
  0.0000000000000000  0.8750000000000000  0.4663570071412603   F   F   F
  0.0000000000000000  0.6250000000000001  0.4663570071412603   F   F   F
  0.3333333333333335  0.8333333333333334  0.4887856690470867   T   T   T
  0.3333333333333335  0.5833333333333333  0.4887856690470867   T   T   T
  0.6666666666666667  0.7916666666666666  0.5112143309529134   T   T   T
  0.6666666666666669  0.5416666666666667  0.5112143309529134   T   T   T
 -0.0000000000000000  0.7500000000000000  0.5336429928587398   T   T   T
  0.0000000000000000  0.5000000000000000  0.5336429928587398   T   T   T
  0.3333333333333334  0.7083333333333333  0.5560716547645663   T   T   T
  0.3333333333333335  0.9583333333333331  0.5560716547645663   T   T   T
  0.6666666666666671  0.6666666666666666  0.5785003166703927   T   T   T
  0.6666666666666667  0.9166666666666666  0.5785003166703927   T   T   T
  0.0000000000000002  0.6250000000000000  0.6009289785762192   T   T   T
  0.0000000000000003  0.8750000000000000  0.6009289785762192   T   T   T
