Ag C  H  O 
 1.0000000000000000
    11.6814040000000006    0.0000000000000000    0.0000000000000000
     0.0000000000000000    8.2599999999999998    0.0000000000000000
     0.0000000000000000    0.0000000000000000   37.3008779999999973
 Ag  C   H   O  
  48   1   3   1
Selective dynamics
Cartesian
 -0.0000000126008821  1.4247718715421955 13.9135694716506215   F   F   F
  4.3805264968497788  3.4897718715421955 15.3737449748008466   F   F   F
  1.4601754905493385  3.4897718715421955 15.3737449748008466   F   F   F
  2.9203509936995591  1.4247718715421955 13.9135694716506215   F   F   F
  2.9203509936995591  1.4247718715421955 16.8339204779510574   F   F   F
  1.4601754905493385  3.4897718715421955 18.2940959811012860   T   T   T
  4.3805264968497797  3.4897718715421955 18.2940959811012860   T   T   T
 -0.0000000126008821  1.4247718715421955 16.8339204779510681   F   F   F
  5.8407019999999994  1.4247718715421955 19.7542714842515004   T   T   T
  4.3805264968497797  3.4897718715421955 21.2144469874017254   T   T   T
  1.4601754905493385  3.4897718715421955 21.2144469874017254   T   T   T
  2.9203509936995578  1.4247718715421955 19.7542714842515004   T   T   T
 -0.0000000126008821  5.5547718715421954 13.9135694716506215   F   F   F
  4.3805264968497788  7.6197718715421958 15.3737449748008466   F   F   F
  1.4601754905493385  7.6197718715421958 15.3737449748008466   F   F   F
  2.9203509936995591  5.5547718715421954 13.9135694716506215   F   F   F
  2.9203509936995591  5.5547718715421954 16.8339204779510574   F   F   F
  1.4601754905493385  7.6197718715421958 18.2940959811012860   T   T   T
  4.3805264968497797  7.6197718715421958 18.2940959811012860   T   T   T
 -0.0000000126008821  5.5547718715421954 16.8339204779510681   F   F   F
  5.8407019999999994  5.5547718715421954 19.7542714842515004   T   T   T
  4.3805264968497797  7.6197718715421958 21.2144469874017254   T   T   T
  1.4601754905493385  7.6197718715421958 21.2144469874017254   T   T   T
  2.9203509936995578  5.5547718715421954 19.7542714842515004   T   T   T
  5.8407020000000003  1.4247718715421955 13.9135694716506215   F   F   F
 10.2212285094506612  3.4897718715421955 15.3737449748008466   F   F   F
  7.3008775031502209  3.4897718715421955 15.3737449748008466   F   F   F
  8.7610530063004415  1.4247718715421955 13.9135694716506215   F   F   F
  8.7610530063004415  1.4247718715421955 16.8339204779510574   F   F   F
  7.3008775031502209  3.4897718715421955 18.2940959811012860   T   T   T
 10.2212285094506612  3.4897718715421955 18.2940959811012860   T   T   T
  5.8407020000000003  1.4247718715421955 16.8339204779510681   F   F   F
 11.6814040126008827  1.4247718715421955 19.7542714842515004   T   T   T
 10.2212285094506612  3.4897718715421955 21.2144469874017254   T   T   T
  7.3008775031502209  3.4897718715421955 21.2144469874017254   T   T   T
  8.7610530063004397  1.4247718715421955 19.7542714842515004   T   T   T
  5.8407020000000003  5.5547718715421954 13.9135694716506215   F   F   F
 10.2212285094506612  7.6197718715421958 15.3737449748008466   F   F   F
  7.3008775031502209  7.6197718715421958 15.3737449748008466   F   F   F
  8.7610530063004415  5.5547718715421954 13.9135694716506215   F   F   F
  8.7610530063004415  5.5547718715421954 16.8339204779510574   F   F   F
  7.3008775031502209  7.6197718715421958 18.2940959811012860   T   T   T
 10.2212285094506612  7.6197718715421958 18.2940959811012860   T   T   T
  5.8407020000000003  5.5547718715421954 16.8339204779510681   F   F   F
 11.6814040126008827  5.5547718715421954 19.7542714842515004   T   T   T
 10.2212285094506612  7.6197718715421958 21.2144469874017254   T   T   T
  7.3008775031502209  7.6197718715421958 21.2144469874017254   T   T   T
  8.7610530063004397  5.5547718715421954 19.7542714842515004   T   T   T
  5.1106142484248895  1.0691517787145335 22.4843592358266129   T   T   T
  4.0855664967252352  0.6576010294533186 22.5909554349202963   T   T   T
  5.5850053919186653  0.6402281284578040 21.5860303023966758   T   T   T
  5.6751265137880385  0.7455593721282758 23.3873085283493758   T   T   T
  5.1106142484248895  2.4572718715421962 22.4843592358266129   T   T   T
