Ag C  H  O 
 1.0000000000000000
     9.2349610000000002    0.0000000000000000    0.0000000000000000
     7.3879690000000000    9.0483770000000003    0.0000000000000000
     0.0000000000000000    0.0000000000000000   37.5872940000000000
 Ag  C   H   O  
  40   1   3   1
Selective dynamics
Cartesian
  2.2008426758731998  0.8103920781715636 13.3881610286577661   F   F   F
  4.0478348252880263  3.0724862406678999 13.3881610286577661   F   F   F
  8.6653151988250912  4.9575647094148465 14.2311937484656390   F   F   F
  6.8183230494102647  2.6954705469185098 14.2311937484656390   F   F   F
 11.4358034229473304  4.5805490156654569 15.0742264682735190   F   F   F
  9.5888112735325066  2.3184548531691216 15.0742264682735190   F   F   F
  4.9713308999954391  4.2035333219160682 15.9172591880813989   F   F   F
  3.1243387505806139  1.9414391594197316 15.9172591880813989   F   F   F
  7.7418191241176801  3.8265176281666795 16.7602919078892718   T   T   T
  5.8948269747028537  1.5644234656703420 16.7602919078892718   T   T   T
 10.5123073482399185  3.4495019344172886 17.6033246276971553   T   T   T
  8.6653151988250947  1.1874077719209533 17.6033246276971553   T   T   T
  4.0478348252880263  3.0724862406678999 18.4463573475050318   T   T   T
  2.2008426758731998  0.8103920781715636 18.4463573475050318   T   T   T
  6.8183230494102656  2.6954705469185098 19.2893900673129082   T   T   T
  8.6653151988250929  4.9575647094148465 19.2893900673129082   T   T   T
  9.5888112735325066  2.3184548531691216 20.1324227871207810   T   T   T
 11.4358034229473304  4.5805490156654569 20.1324227871207810   T   T   T
  3.1243387505806148  1.9414391594197316 20.9754555069286575   T   T   T
  4.9713308999954418  4.2035333219160682 20.9754555069286575   T   T   T
  5.8948269747028519  5.3345804031642361 13.3881610286577661   F   F   F
  7.7418191241176784  7.5966745656605728 13.3881610286577661   F   F   F
 12.3592994976547423  9.4817530344075180 14.2311937484656390   F   F   F
 10.5123073482399185  7.2196588719111832 14.2311937484656390   F   F   F
 15.1297877217769852  9.1047373406581293 15.0742264682735190   F   F   F
 13.2827955723621578  6.8426431781617936 15.0742264682735190   F   F   F
  8.6653151988250912  8.7277216469087406 15.9172591880813989   F   F   F
  6.8183230494102665  6.4656274844124049 15.9172591880813989   F   F   F
 11.4358034229473340  8.3507059531593502 16.7602919078892718   T   T   T
  9.5888112735325066  6.0886117906630144 16.7602919078892718   T   T   T
 14.2062916470695697  7.9736902594099615 17.6033246276971553   T   T   T
 12.3592994976547459  5.7115960969136266 17.6033246276971553   T   T   T
  7.7418191241176784  7.5966745656605728 18.4463573475050318   T   T   T
  5.8948269747028519  5.3345804031642361 18.4463573475050318   T   T   T
 10.5123073482399185  7.2196588719111823 19.2893900673129082   T   T   T
 12.3592994976547459  9.4817530344075180 19.2893900673129082   T   T   T
 13.2827955723621614  6.8426431781617936 20.1324227871207810   T   T   T
 15.1297877217769852  9.1047373406581293 20.1324227871207810   T   T   T
  6.8183230494102673  6.4656274844124040 20.9754555069286575   T   T   T
  8.6653151988250947  8.7277216469087406 20.9754555069286575   T   T   T
  3.2518753238072309  0.2533289417169459 23.1442805006394501   T   T   T
  2.1637589203725325  0.0479548960360975 23.0715903632051109   T   T   T
  3.7987390298810082 -0.4333760344075178 22.4769022794204751   T   T   T
  3.5411708230692538  0.0476642938747690 24.1991329713422338   T   T   T
  3.5412067396472784  1.5887047071325551 22.8994616103132564   T   T   T
