Ag C  H  O 
 1.0000000000000000
    11.6814040000000006    0.0000000000000000    0.0000000000000000
     0.0000000000000000    8.2599999999999998    0.0000000000000000
     0.0000000000000000    0.0000000000000000   37.3008779999999973
 Ag  C   H   O  
  48   1   3   1
Selective dynamics
Cartesian
 -0.0000000126008821  1.4816644667149683 13.8215661221573640   F   F   F
  4.3805264968497788  3.5466644667149683 15.2817416253075891   F   F   F
  1.4601754905493385  3.5466644667149683 15.2817416253075891   F   F   F
  2.9203509936995591  1.4816644667149683 13.8215661221573640   F   F   F
  2.9203509936995591  1.4816644667149683 16.7419171284577999   F   F   F
  1.4601754905493385  3.5466644667149683 18.2020926316080285   T   T   T
  4.3805264968497797  3.5466644667149683 18.2020926316080285   T   T   T
 -0.0000000126008821  1.4816644667149683 16.7419171284578105   F   F   F
  5.8407019999999994  1.4816644667149683 19.6622681347582429   T   T   T
  4.3805264968497797  3.5466644667149683 21.1224436379084679   T   T   T
  1.4601754905493385  3.5466644667149683 21.1224436379084679   T   T   T
  2.9203509936995578  1.4816644667149683 19.6622681347582429   T   T   T
 -0.0000000126008821  5.6116644667149682 13.8215661221573640   F   F   F
  4.3805264968497788  7.6766644667149686 15.2817416253075891   F   F   F
  1.4601754905493385  7.6766644667149686 15.2817416253075891   F   F   F
  2.9203509936995591  5.6116644667149682 13.8215661221573640   F   F   F
  2.9203509936995591  5.6116644667149682 16.7419171284577999   F   F   F
  1.4601754905493385  7.6766644667149686 18.2020926316080285   T   T   T
  4.3805264968497797  7.6766644667149686 18.2020926316080285   T   T   T
 -0.0000000126008821  5.6116644667149682 16.7419171284578105   F   F   F
  5.8407019999999994  5.6116644667149682 19.6622681347582429   T   T   T
  4.3805264968497797  7.6766644667149686 21.1224436379084679   T   T   T
  1.4601754905493385  7.6766644667149686 21.1224436379084679   T   T   T
  2.9203509936995578  5.6116644667149682 19.6622681347582429   T   T   T
  5.8407020000000003  1.4816644667149683 13.8215661221573640   F   F   F
 10.2212285094506612  3.5466644667149683 15.2817416253075891   F   F   F
  7.3008775031502209  3.5466644667149683 15.2817416253075891   F   F   F
  8.7610530063004415  1.4816644667149683 13.8215661221573640   F   F   F
  8.7610530063004415  1.4816644667149683 16.7419171284577999   F   F   F
  7.3008775031502209  3.5466644667149683 18.2020926316080285   T   T   T
 10.2212285094506612  3.5466644667149683 18.2020926316080285   T   T   T
  5.8407020000000003  1.4816644667149683 16.7419171284578105   F   F   F
 11.6814040126008827  1.4816644667149683 19.6622681347582429   T   T   T
 10.2212285094506612  3.5466644667149683 21.1224436379084679   T   T   T
  7.3008775031502209  3.5466644667149683 21.1224436379084679   T   T   T
  8.7610530063004397  1.4816644667149683 19.6622681347582429   T   T   T
  5.8407020000000003  5.6116644667149682 13.8215661221573640   F   F   F
 10.2212285094506612  7.6766644667149686 15.2817416253075891   F   F   F
  7.3008775031502209  7.6766644667149686 15.2817416253075891   F   F   F
  8.7610530063004415  5.6116644667149682 13.8215661221573640   F   F   F
  8.7610530063004415  5.6116644667149682 16.7419171284577999   F   F   F
  7.3008775031502209  7.6766644667149686 18.2020926316080285   T   T   T
 10.2212285094506612  7.6766644667149686 18.2020926316080285   T   T   T
  5.8407020000000003  5.6116644667149682 16.7419171284578105   F   F   F
 11.6814040126008827  5.6116644667149682 19.6622681347582429   T   T   T
 10.2212285094506612  7.6766644667149686 21.1224436379084679   T   T   T
  7.3008775031502209  7.6766644667149686 21.1224436379084679   T   T   T
  8.7610530063004397  5.6116644667149682 19.6622681347582429   T   T   T
  4.3805264968497788  1.4816644667149683 23.0503882275859056   T   T   T
  3.3554787451501245  1.5882606658086518 23.4619389768471223   T   T   T
  4.8549176403435546  0.5833355332850312 23.4793118778426333   T   T   T
  4.9450387622129277  2.3846137592377294 23.3739806341721632   T   T   T
  4.3805264968497788  1.4816644667149683 21.6622681347582429   T   T   T
