Ag C  H  O 
 1.0000000000000000
     9.2349610000000002    0.0000000000000000    0.0000000000000000
     7.3879690000000000    9.0483770000000003    0.0000000000000000
     0.0000000000000000    0.0000000000000000   37.5872940000000000
 Ag  C   H   O  
  40   1   3   1
Selective dynamics
Cartesian
  1.6930764621686449  0.1885080218820230 13.8122447250640015   F   F   F
  3.5400686115834712  2.4506021843783592 13.8122447250640015   F   F   F
  8.1575489851205365  4.3356806531253058 14.6552774448718708   F   F   F
  6.3105568357057100  2.0735864906289692 14.6552774448718708   F   F   F
 10.9280372092427758  3.9586649593759167 15.4983101646797508   F   F   F
  9.0810450598279502  1.6965707968795809 15.4983101646797508   F   F   F
  4.4635646862908844  3.5816492656265275 16.3413428844876307   F   F   F
  2.6165725368760588  1.3195551031301911 16.3413428844876307   F   F   F
  7.2340529104131255  3.2046335718771388 17.1843756042955036   T   T   T
  5.3870607609982981  0.9425394093808014 17.1843756042955036   T   T   T
 10.0045411345353621  2.8276178781277479 18.0274083241033871   T   T   T
  8.1575489851205383  0.5655237156314126 18.0274083241033871   T   T   T
  3.5400686115834712  2.4506021843783592 18.8704410439112635   T   T   T
  1.6930764621686449  0.1885080218820230 18.8704410439112635   T   T   T
  6.3105568357057109  2.0735864906289692 19.7134737637191400   T   T   T
  8.1575489851205383  4.3356806531253058 19.7134737637191400   T   T   T
  9.0810450598279520  1.6965707968795809 20.5565064835270128   T   T   T
 10.9280372092427758  3.9586649593759167 20.5565064835270128   T   T   T
  2.6165725368760597  1.3195551031301911 21.3995392033348892   T   T   T
  4.4635646862908871  3.5816492656265275 21.3995392033348892   T   T   T
  5.3870607609982972  4.7126963468746954 13.8122447250640015   F   F   F
  7.2340529104131237  6.9747905093710321 13.8122447250640015   F   F   F
 11.8515332839501877  8.8598689781179765 14.6552774448718708   F   F   F
 10.0045411345353621  6.5977748156216425 14.6552774448718708   F   F   F
 14.6220215080724287  8.4828532843685878 15.4983101646797508   F   F   F
 12.7750293586576031  6.2207591218722529 15.4983101646797508   F   F   F
  8.1575489851205365  8.1058375906191991 16.3413428844876307   F   F   F
  6.3105568357057118  5.8437434281228642 16.3413428844876307   F   F   F
 10.9280372092427775  7.7288218968698104 17.1843756042955036   T   T   T
  9.0810450598279502  5.4667277343734737 17.1843756042955036   T   T   T
 13.6985254333650150  7.3518062031204208 18.0274083241033871   T   T   T
 11.8515332839501912  5.0897120406240859 18.0274083241033871   T   T   T
  7.2340529104131237  6.9747905093710321 18.8704410439112635   T   T   T
  5.3870607609982972  4.7126963468746954 18.8704410439112635   T   T   T
 10.0045411345353621  6.5977748156216416 19.7134737637191400   T   T   T
 11.8515332839501895  8.8598689781179765 19.7134737637191400   T   T   T
 12.7750293586576067  6.2207591218722529 20.5565064835270128   T   T   T
 14.6220215080724287  8.4828532843685878 20.5565064835270128   T   T   T
  6.3105568357057127  5.8437434281228633 21.3995392033348892   T   T   T
  8.1575489851205401  8.1058375906191991 21.3995392033348892   T   T   T
  8.9198589145361105  3.4290348218466038 22.7341512907286472   T   T   T
  8.0955197778014707  4.1434703495932981 22.5304197848585588   T   T   T
  9.2621134947074051  3.5531739222022169 23.7750492749359985   T   T   T
  9.7480582340507986  3.6981847833137378 22.0410800435897123   T   T   T
  8.5541895661193035  2.1230728632151523 22.4381332467721855   T   T   T
