Ag C  H  O 
 1.0000000000000000
     9.2349610000000002    0.0000000000000000    0.0000000000000000
     7.3879690000000000    9.0483770000000003    0.0000000000000000
     0.0000000000000000    0.0000000000000000   37.5872940000000000
 Ag  C   H   O  
  40   1   3   1
Selective dynamics
Cartesian
  1.7272338819563460  0.1885080218820230 13.8743331812807611   F   F   F
  3.5742260313711722  2.4506021843783592 13.8743331812807611   F   F   F
  8.1917064049082366  4.3356806531253058 14.7173659010886340   F   F   F
  6.3447142554934111  2.0735864906289692 14.7173659010886340   F   F   F
 10.9621946290304777  3.9586649593759167 15.5603986208965139   F   F   F
  9.1152024796156521  1.6965707968795809 15.5603986208965139   F   F   F
  4.4977221060785855  3.5816492656265275 16.4034313407043939   F   F   F
  2.6507299566637599  1.3195551031301911 16.4034313407043939   F   F   F
  7.2682103302008265  3.2046335718771388 17.2464640605122668   T   T   T
  5.4212181807859992  0.9425394093808014 17.2464640605122668   T   T   T
 10.0386985543230640  2.8276178781277479 18.0894967803201503   T   T   T
  8.1917064049082402  0.5655237156314126 18.0894967803201503   T   T   T
  3.5742260313711722  2.4506021843783592 18.9325295001280267   T   T   T
  1.7272338819563460  0.1885080218820230 18.9325295001280267   T   T   T
  6.3447142554934119  2.0735864906289692 19.7755622199359031   T   T   T
  8.1917064049082384  4.3356806531253058 19.7755622199359031   T   T   T
  9.1152024796156539  1.6965707968795809 20.6185949397437760   T   T   T
 10.9621946290304777  3.9586649593759167 20.6185949397437760   T   T   T
  2.6507299566637608  1.3195551031301911 21.4616276595516524   T   T   T
  4.4977221060785881  3.5816492656265275 21.4616276595516524   T   T   T
  5.4212181807859983  4.7126963468746954 13.8743331812807611   F   F   F
  7.2682103302008247  6.9747905093710321 13.8743331812807611   F   F   F
 11.8856907037378896  8.8598689781179765 14.7173659010886340   F   F   F
 10.0386985543230640  6.5977748156216425 14.7173659010886340   F   F   F
 14.6561789278601307  8.4828532843685878 15.5603986208965139   F   F   F
 12.8091867784453051  6.2207591218722529 15.5603986208965139   F   F   F
  8.1917064049082384  8.1058375906191991 16.4034313407043939   F   F   F
  6.3447142554934128  5.8437434281228642 16.4034313407043939   F   F   F
 10.9621946290304795  7.7288218968698104 17.2464640605122668   T   T   T
  9.1152024796156521  5.4667277343734737 17.2464640605122668   T   T   T
 13.7326828531527170  7.3518062031204208 18.0894967803201503   T   T   T
 11.8856907037378932  5.0897120406240859 18.0894967803201503   T   T   T
  7.2682103302008247  6.9747905093710321 18.9325295001280267   T   T   T
  5.4212181807859983  4.7126963468746954 18.9325295001280267   T   T   T
 10.0386985543230640  6.5977748156216416 19.7755622199359031   T   T   T
 11.8856907037378914  8.8598689781179765 19.7755622199359031   T   T   T
 12.8091867784453086  6.2207591218722529 20.6185949397437760   T   T   T
 14.6561789278601307  8.4828532843685878 20.6185949397437760   T   T   T
  6.3447142554934137  5.8437434281228633 21.4616276595516524   T   T   T
  8.1917064049082402  8.1058375906191991 21.4616276595516524   T   T   T
  5.7637322225619840  4.0208727581177603 22.7263067634907792   T   T   T
  6.8306323631908139  4.3249343753047009 22.7533305497364147   T   T   T
  5.2444918103602713  4.5799199360920371 21.9301453636805093   T   T   T
  5.3315819327224432  4.3009860753768931 23.7129608187192389   T   T   T
  5.6234034826004518  2.6456511064947419 22.6000108975254008   T   T   T
