Ag C  H  O 
 1.0000000000000000
     9.2349610000000002    0.0000000000000000    0.0000000000000000
     7.3879690000000000    9.0483770000000003    0.0000000000000000
     0.0000000000000000    0.0000000000000000   37.5872940000000000
 Ag  C   H   O  
  40   1   3   1
Selective dynamics
Cartesian
  2.0964420592134374  0.1885080218820230 13.0268857156121314   F   F   F
  3.9434342086282639  2.4506021843783592 13.0268857156121314   F   F   F
  8.5609145821653279  4.3356806531253058 13.8699184354200007   F   F   F
  6.7139224327505023  2.0735864906289692 13.8699184354200007   F   F   F
 11.3314028062875689  3.9586649593759167 14.7129511552278807   F   F   F
  9.4844106568727433  1.6965707968795809 14.7129511552278807   F   F   F
  4.8669302833356767  3.5816492656265275 15.5559838750357606   F   F   F
  3.0199381339208515  1.3195551031301911 15.5559838750357606   F   F   F
  7.6374185074579177  3.2046335718771388 16.3990165948436335   T   T   T
  5.7904263580430904  0.9425394093808014 16.3990165948436335   T   T   T
 10.4079067315801552  2.8276178781277479 17.2420493146515170   T   T   T
  8.5609145821653314  0.5655237156314126 17.2420493146515170   T   T   T
  3.9434342086282639  2.4506021843783592 18.0850820344593934   T   T   T
  2.0964420592134374  0.1885080218820230 18.0850820344593934   T   T   T
  6.7139224327505032  2.0735864906289692 18.9281147542672699   T   T   T
  8.5609145821653314  4.3356806531253058 18.9281147542672699   T   T   T
  9.4844106568727451  1.6965707968795809 19.7711474740751427   T   T   T
 11.3314028062875689  3.9586649593759167 19.7711474740751427   T   T   T
  3.0199381339208524  1.3195551031301911 20.6141801938830191   T   T   T
  4.8669302833356793  3.5816492656265275 20.6141801938830191   T   T   T
  5.7904263580430904  4.7126963468746954 13.0268857156121314   F   F   F
  7.6374185074579160  6.9747905093710321 13.0268857156121314   F   F   F
 12.2548988809949808  8.8598689781179765 13.8699184354200007   F   F   F
 10.4079067315801552  6.5977748156216425 13.8699184354200007   F   F   F
 15.0253871051172219  8.4828532843685878 14.7129511552278807   F   F   F
 13.1783949557023963  6.2207591218722529 14.7129511552278807   F   F   F
  8.5609145821653296  8.1058375906191991 15.5559838750357606   F   F   F
  6.7139224327505040  5.8437434281228642 15.5559838750357606   F   F   F
 11.3314028062875707  7.7288218968698104 16.3990165948436335   T   T   T
  9.4844106568727433  5.4667277343734737 16.3990165948436335   T   T   T
 14.1018910304098082  7.3518062031204208 17.2420493146515170   T   T   T
 12.2548988809949844  5.0897120406240859 17.2420493146515170   T   T   T
  7.6374185074579160  6.9747905093710321 18.0850820344593934   T   T   T
  5.7904263580430904  4.7126963468746954 18.0850820344593934   T   T   T
 10.4079067315801552  6.5977748156216416 18.9281147542672699   T   T   T
 12.2548988809949826  8.8598689781179765 18.9281147542672699   T   T   T
 13.1783949557023998  6.2207591218722529 19.7711474740751427   T   T   T
 15.0253871051172219  8.4828532843685878 19.7711474740751427   T   T   T
  6.7139224327505049  5.8437434281228633 20.6141801938830191   T   T   T
  8.5609145821653314  8.1058375906191991 20.6141801938830191   T   T   T
  4.0720512334016270  2.3403590202869067 23.8698698587064477   T   T   T
  2.9840773243962264  2.2636747453015920 24.0745451074217911   T   T   T
  4.6212981248625837  1.6789197847632193 24.5604082843878686   T   T   T
  4.3562836890146066  3.3975397871326249 24.0705793642132626   T   T   T
  4.3638337781050094  2.0902596962554361 22.5360067972052711   T   T   T
