Ag C  H  O 
 1.0000000000000000
     9.2349610000000002    0.0000000000000000    0.0000000000000000
     7.3879690000000000    9.0483770000000003    0.0000000000000000
     0.0000000000000000    0.0000000000000000   37.5872940000000000
 Ag  C   H   O  
  40   1   3   1
Selective dynamics
Cartesian
  0.8875385947993468  0.1885080218820230 14.2775045480610494   F   F   F
  2.7345307442141733  2.4506021843783592 14.2775045480610494   F   F   F
  7.3520111177512382  4.3356806531253058 15.1205372678689223   F   F   F
  5.5050189683364117  2.0735864906289692 15.1205372678689223   F   F   F
 10.1224993418734783  3.9586649593759167 15.9635699876768022   F   F   F
  8.2755071924586527  1.6965707968795809 15.9635699876768022   F   F   F
  3.6580268189215861  3.5816492656265275 16.8066027074846822   F   F   F
  1.8110346695067610  1.3195551031301911 16.8066027074846822   F   F   F
  6.4285150430438271  3.2046335718771388 17.6496354272925551   T   T   T
  4.5815228936289998  0.9425394093808014 17.6496354272925551   T   T   T
  9.1990032671660646  2.8276178781277479 18.4926681471004386   T   T   T
  7.3520111177512408  0.5655237156314126 18.4926681471004386   T   T   T
  2.7345307442141733  2.4506021843783592 19.3357008669083150   T   T   T
  0.8875385947993468  0.1885080218820230 19.3357008669083150   T   T   T
  5.5050189683364126  2.0735864906289692 20.1787335867161914   T   T   T
  7.3520111177512399  4.3356806531253058 20.1787335867161914   T   T   T
  8.2755071924586545  1.6965707968795809 21.0217663065240643   T   T   T
 10.1224993418734783  3.9586649593759167 21.0217663065240643   T   T   T
  1.8110346695067618  1.3195551031301911 21.8647990263319407   T   T   T
  3.6580268189215888  3.5816492656265275 21.8647990263319407   T   T   T
  4.5815228936289998  4.7126963468746954 14.2775045480610494   F   F   F
  6.4285150430438254  6.9747905093710321 14.2775045480610494   F   F   F
 11.0459954165808902  8.8598689781179765 15.1205372678689223   F   F   F
  9.1990032671660646  6.5977748156216425 15.1205372678689223   F   F   F
 13.8164836407031313  8.4828532843685878 15.9635699876768022   F   F   F
 11.9694914912883057  6.2207591218722529 15.9635699876768022   F   F   F
  7.3520111177512391  8.1058375906191991 16.8066027074846822   F   F   F
  5.5050189683364135  5.8437434281228642 16.8066027074846822   F   F   F
 10.1224993418734801  7.7288218968698104 17.6496354272925551   T   T   T
  8.2755071924586527  5.4667277343734737 17.6496354272925551   T   T   T
 12.8929875659957176  7.3518062031204208 18.4926681471004386   T   T   T
 11.0459954165808938  5.0897120406240859 18.4926681471004386   T   T   T
  6.4285150430438254  6.9747905093710321 19.3357008669083150   T   T   T
  4.5815228936289998  4.7126963468746954 19.3357008669083150   T   T   T
  9.1990032671660646  6.5977748156216416 20.1787335867161914   T   T   T
 11.0459954165808920  8.8598689781179765 20.1787335867161914   T   T   T
 11.9694914912883092  6.2207591218722529 21.0217663065240643   T   T   T
 13.8164836407031313  8.4828532843685878 21.0217663065240643   T   T   T
  5.5050189683364144  5.8437434281228633 21.8647990263319407   T   T   T
  7.3520111177512417  8.1058375906191991 21.8647990263319407   T   T   T
  9.0395393096434251  1.9406982750235695 22.6140072602091529   T   T   T
  8.2121396446923676  1.2296573981353696 22.8172074766857520   T   T   T
  9.3840036970391889  1.8130301592149731 21.5742657224055456   T   T   T
  9.8650020879329094  1.6701397572434828 23.3097894519389506   T   T   T
  8.6777769426751519  3.2486083709857958 22.9061999412219883   T   T   T
