Ag C  H  O 
 1.0000000000000000
    11.6814040000000006    0.0000000000000000    0.0000000000000000
     0.0000000000000000    8.2599999999999998    0.0000000000000000
     0.0000000000000000    0.0000000000000000   37.3008779999999973
 Ag  C   H   O  
  48   1   3   1
Selective dynamics
Cartesian
 -0.0000000126008821  1.9410218715421956 14.2809235269845907   F   F   F
  4.3805264968497788  4.0060218715421954 15.7410990301348157   F   F   F
  1.4601754905493385  4.0060218715421954 15.7410990301348157   F   F   F
  2.9203509936995591  1.9410218715421956 14.2809235269845907   F   F   F
  2.9203509936995591  1.9410218715421956 17.2012745332850265   F   F   F
  1.4601754905493385  4.0060218715421954 18.6614500364352551   T   T   T
  4.3805264968497797  4.0060218715421954 18.6614500364352551   T   T   T
 -0.0000000126008821  1.9410218715421956 17.2012745332850372   F   F   F
  5.8407019999999994  1.9410218715421956 20.1216255395854695   T   T   T
  4.3805264968497797  4.0060218715421954 21.5818010427356946   T   T   T
  1.4601754905493385  4.0060218715421954 21.5818010427356946   T   T   T
  2.9203509936995578  1.9410218715421956 20.1216255395854695   T   T   T
 -0.0000000126008821  6.0710218715421957 14.2809235269845907   F   F   F
  4.3805264968497788  8.1360218715421961 15.7410990301348157   F   F   F
  1.4601754905493385  8.1360218715421961 15.7410990301348157   F   F   F
  2.9203509936995591  6.0710218715421957 14.2809235269845907   F   F   F
  2.9203509936995591  6.0710218715421957 17.2012745332850265   F   F   F
  1.4601754905493385  8.1360218715421961 18.6614500364352551   T   T   T
  4.3805264968497797  8.1360218715421961 18.6614500364352551   T   T   T
 -0.0000000126008821  6.0710218715421957 17.2012745332850372   F   F   F
  5.8407019999999994  6.0710218715421957 20.1216255395854695   T   T   T
  4.3805264968497797  8.1360218715421961 21.5818010427356946   T   T   T
  1.4601754905493385  8.1360218715421961 21.5818010427356946   T   T   T
  2.9203509936995578  6.0710218715421957 20.1216255395854695   T   T   T
  5.8407020000000003  1.9410218715421956 14.2809235269845907   F   F   F
 10.2212285094506612  4.0060218715421954 15.7410990301348157   F   F   F
  7.3008775031502209  4.0060218715421954 15.7410990301348157   F   F   F
  8.7610530063004415  1.9410218715421956 14.2809235269845907   F   F   F
  8.7610530063004415  1.9410218715421956 17.2012745332850265   F   F   F
  7.3008775031502209  4.0060218715421954 18.6614500364352551   T   T   T
 10.2212285094506612  4.0060218715421954 18.6614500364352551   T   T   T
  5.8407020000000003  1.9410218715421956 17.2012745332850372   F   F   F
 11.6814040126008827  1.9410218715421956 20.1216255395854695   T   T   T
 10.2212285094506612  4.0060218715421954 21.5818010427356946   T   T   T
  7.3008775031502209  4.0060218715421954 21.5818010427356946   T   T   T
  8.7610530063004397  1.9410218715421956 20.1216255395854695   T   T   T
  5.8407020000000003  6.0710218715421957 14.2809235269845907   F   F   F
 10.2212285094506612  8.1360218715421961 15.7410990301348157   F   F   F
  7.3008775031502209  8.1360218715421961 15.7410990301348157   F   F   F
  8.7610530063004415  6.0710218715421957 14.2809235269845907   F   F   F
  8.7610530063004415  6.0710218715421957 17.2012745332850265   F   F   F
  7.3008775031502209  8.1360218715421961 18.6614500364352551   T   T   T
 10.2212285094506612  8.1360218715421961 18.6614500364352551   T   T   T
  5.8407020000000003  6.0710218715421957 17.2012745332850372   F   F   F
 11.6814040126008827  6.0710218715421957 20.1216255395854695   T   T   T
 10.2212285094506612  8.1360218715421961 21.5818010427356946   T   T   T
  7.3008775031502209  8.1360218715421961 21.5818010427356946   T   T   T
  8.7610530063004397  6.0710218715421957 20.1216255395854695   T   T   T
  4.3805264968497788  0.5529017787145329 22.1216255395854695   T   T   T
  5.4055742485494331  0.1413510294533180 22.0150293404917861   T   T   T
  3.9061353533560030  0.1239781284578034 23.0199544730154066   T   T   T
  3.8160142314866299  0.2293093721282753 21.2186762470627066   T   T   T
  4.3805264968497788  1.9410218715421956 22.1216255395854695   T   T   T
