SYSTEM = Autoflow Gas Phase

# Electronic
PREC   = Accurate
ENCUT  = 500
EDIFF  = 1E-6
ISMEAR = 0
SIGMA  = 0.05
ISPIN  = 1
ISYM   = 0
ALGO   = Normal
LREAL  = .FALSE.

# Ionic relaxation
IBRION = 2
NSW    = 50
ISIF   = 0
EDIFFG = -0.01
IVDW   = 12

# Output
LWAVE  = .FALSE.
LCHARG = .FALSE.
