C  H  O 
 1.0000000000000000
    20.0000000000000000    0.0000000000000000    0.0000000000000000
     0.0000000000000000   20.0000000000000000    0.0000000000000000
     0.0000000000000000    0.0000000000000000   20.0000000000000000
 C   H   O  
   1   3   1
Cartesian
  9.5407830326603982  9.9918545645266263  9.8238294480995485
  9.0763364463856924  9.7966499914713090 10.8125883698288376
  9.0851577072051821 10.8912998557566993  9.3772635981959365
  9.3090197931887939  9.1087001442433024  9.1874116301711624
 10.9236635536143076 10.0741206002012458  9.9118700992358519
