Ag C  H  O 
 1.0000000000000000
     9.2349610000000002    0.0000000000000000    0.0000000000000000
     7.3879690000000000    9.0483770000000003    0.0000000000000000
     0.0000000000000000    0.0000000000000000   37.5872940000000000
 Ag  C   H   O  
  40   1   3   1
Selective dynamics
Cartesian
  1.9059202766116985  0.4491873879160160 13.0269563384022202   F   F   F
  3.7529124260265245  2.7112815504123522 13.0269563384022202   F   F   F
  8.3703927995635894  4.5963600191592988 13.8699890582100913   F   F   F
  6.5234006501487638  2.3342658566629622 13.8699890582100913   F   F   F
 11.1408810236858304  4.2193443254099101 14.7130217780179713   F   F   F
  9.2938888742710049  1.9572501629135739 14.7130217780179713   F   F   F
  4.6764085007339382  3.8423286316605205 15.5560544978258513   F   F   F
  2.8294163513191126  1.5802344691641841 15.5560544978258513   F   F   F
  7.4468967248561793  3.4653129379111318 16.3990872176337241   T   T   T
  5.5999045754413519  1.2032187754147943 16.3990872176337241   T   T   T
 10.2173849489784168  3.0882972441617409 17.2421199374416076   T   T   T
  8.3703927995635929  0.8262030816654056 17.2421199374416076   T   T   T
  3.7529124260265245  2.7112815504123522 18.0851526572494841   T   T   T
  1.9059202766116985  0.4491873879160160 18.0851526572494841   T   T   T
  6.5234006501487638  2.3342658566629622 18.9281853770573605   T   T   T
  8.3703927995635912  4.5963600191592988 18.9281853770573605   T   T   T
  9.2938888742710066  1.9572501629135739 19.7712180968652333   T   T   T
 11.1408810236858304  4.2193443254099101 19.7712180968652333   T   T   T
  2.8294163513191135  1.5802344691641841 20.6142508166731098   T   T   T
  4.6764085007339400  3.8423286316605205 20.6142508166731098   T   T   T
  5.5999045754413510  4.9733757129086884 13.0269563384022202   F   F   F
  7.4468967248561775  7.2354698754050251 13.0269563384022202   F   F   F
 12.0643770983932423  9.1205483441519704 13.8699890582100913   F   F   F
 10.2173849489784168  6.8584541816556355 13.8699890582100913   F   F   F
 14.8348653225154834  8.7435326504025817 14.7130217780179713   F   F   F
 12.9878731731006578  6.4814384879062459 14.7130217780179713   F   F   F
  8.3703927995635912  8.3665169566531929 15.5560544978258513   F   F   F
  6.5234006501487656  6.1044227941568572 15.5560544978258513   F   F   F
 11.1408810236858322  7.9895012629038034 16.3990872176337241   T   T   T
  9.2938888742710049  5.7274071004074667 16.3990872176337241   T   T   T
 13.9113692478080697  7.6124855691544138 17.2421199374416076   T   T   T
 12.0643770983932459  5.3503914066580789 17.2421199374416076   T   T   T
  7.4468967248561775  7.2354698754050251 18.0851526572494841   T   T   T
  5.5999045754413510  4.9733757129086884 18.0851526572494841   T   T   T
 10.2173849489784168  6.8584541816556346 18.9281853770573605   T   T   T
 12.0643770983932441  9.1205483441519704 18.9281853770573605   T   T   T
 12.9878731731006614  6.4814384879062459 19.7712180968652333   T   T   T
 14.8348653225154834  8.7435326504025817 19.7712180968652333   T   T   T
  6.5234006501487656  6.1044227941568563 20.6142508166731098   T   T   T
  8.3703927995635929  8.3665169566531929 20.6142508166731098   T   T   T
  3.5356157562258246  0.9826811265508120 23.8736326854733178   T   T   T
  4.6237321596605234  1.0553712639851529 24.0790067311541662   T   T   T
  2.9887520501520473  1.6500593477697905 24.5603376615977815   T   T   T
  3.2463202569638017 -0.0721713441519700 24.0792973333154947   T   T   T
  3.2462843403857771  1.2275000168770074 22.5382569200577088   T   T   T
