Ag C  H  O 
 1.0000000000000000
    11.6814040000000006    0.0000000000000000    0.0000000000000000
     0.0000000000000000    8.2599999999999998    0.0000000000000000
     0.0000000000000000    0.0000000000000000   37.3008779999999973
 Ag  C   H   O  
  48   1   3   1
Selective dynamics
Cartesian
 -0.0000000126008821  1.0324999999999998 13.4565222463698078   F   F   F
  4.3805264968497788  3.0974999999999997 14.9166977495200328   F   F   F
  1.4601754905493385  3.0974999999999997 14.9166977495200328   F   F   F
  2.9203509936995591  1.0324999999999998 13.4565222463698078   F   F   F
  2.9203509936995591  1.0324999999999998 16.3768732526702436   F   F   F
  1.4601754905493385  3.0974999999999997 17.8370487558204722   T   T   T
  4.3805264968497797  3.0974999999999997 17.8370487558204722   T   T   T
 -0.0000000126008821  1.0324999999999998 16.3768732526702543   F   F   F
  5.8407019999999994  1.0324999999999998 19.2972242589706866   T   T   T
  4.3805264968497797  3.0974999999999997 20.7573997621209116   T   T   T
  1.4601754905493385  3.0974999999999997 20.7573997621209116   T   T   T
  2.9203509936995578  1.0324999999999998 19.2972242589706866   T   T   T
 -0.0000000126008821  5.1624999999999996 13.4565222463698078   F   F   F
  4.3805264968497788  7.2275000000000000 14.9166977495200328   F   F   F
  1.4601754905493385  7.2275000000000000 14.9166977495200328   F   F   F
  2.9203509936995591  5.1624999999999996 13.4565222463698078   F   F   F
  2.9203509936995591  5.1624999999999996 16.3768732526702436   F   F   F
  1.4601754905493385  7.2275000000000000 17.8370487558204722   T   T   T
  4.3805264968497797  7.2275000000000000 17.8370487558204722   T   T   T
 -0.0000000126008821  5.1624999999999996 16.3768732526702543   F   F   F
  5.8407019999999994  5.1624999999999996 19.2972242589706866   T   T   T
  4.3805264968497797  7.2275000000000000 20.7573997621209116   T   T   T
  1.4601754905493385  7.2275000000000000 20.7573997621209116   T   T   T
  2.9203509936995578  5.1624999999999996 19.2972242589706866   T   T   T
  5.8407020000000003  1.0324999999999998 13.4565222463698078   F   F   F
 10.2212285094506612  3.0974999999999997 14.9166977495200328   F   F   F
  7.3008775031502209  3.0974999999999997 14.9166977495200328   F   F   F
  8.7610530063004415  1.0324999999999998 13.4565222463698078   F   F   F
  8.7610530063004415  1.0324999999999998 16.3768732526702436   F   F   F
  7.3008775031502209  3.0974999999999997 17.8370487558204722   T   T   T
 10.2212285094506612  3.0974999999999997 17.8370487558204722   T   T   T
  5.8407020000000003  1.0324999999999998 16.3768732526702543   F   F   F
 11.6814040126008827  1.0324999999999998 19.2972242589706866   T   T   T
 10.2212285094506612  3.0974999999999997 20.7573997621209116   T   T   T
  7.3008775031502209  3.0974999999999997 20.7573997621209116   T   T   T
  8.7610530063004397  1.0324999999999998 19.2972242589706866   T   T   T
  5.8407020000000003  5.1624999999999996 13.4565222463698078   F   F   F
 10.2212285094506612  7.2275000000000000 14.9166977495200328   F   F   F
  7.3008775031502209  7.2275000000000000 14.9166977495200328   F   F   F
  8.7610530063004415  5.1624999999999996 13.4565222463698078   F   F   F
  8.7610530063004415  5.1624999999999996 16.3768732526702436   F   F   F
  7.3008775031502209  7.2275000000000000 17.8370487558204722   T   T   T
 10.2212285094506612  7.2275000000000000 17.8370487558204722   T   T   T
  5.8407020000000003  5.1624999999999996 16.3768732526702543   F   F   F
 11.6814040126008827  5.1624999999999996 19.2972242589706866   T   T   T
 10.2212285094506612  7.2275000000000000 20.7573997621209116   T   T   T
  7.3008775031502209  7.2275000000000000 20.7573997621209116   T   T   T
  8.7610530063004397  5.1624999999999996 19.2972242589706866   T   T   T
  5.1106142484248895  2.0650000000000004 23.4154321033734618   T   T   T
  6.1356620001245439  1.9584038009063169 23.8269828526346785   T   T   T
  4.6362231049311138  2.9633289334299375 23.8443557536301896   T   T   T
  4.5461019830617406  1.1620507074772393 23.7390245099597195   T   T   T
  5.1106142484248895  2.0650000000000004 22.0273120105457991   T   T   T
