Ag C  H  O 
 1.0000000000000000
     9.2349610000000002    0.0000000000000000    0.0000000000000000
     7.3879690000000000    9.0483770000000003    0.0000000000000000
     0.0000000000000000    0.0000000000000000   37.5872940000000000
 Ag  C   H   O  
  40   1   3   1
Selective dynamics
Cartesian
  1.6930764621686449  0.1885080218820230 14.0958753749552343   F   F   F
  3.5400686115834712  2.4506021843783592 14.0958753749552343   F   F   F
  8.1575489851205365  4.3356806531253058 14.9389080947631072   F   F   F
  6.3105568357057100  2.0735864906289692 14.9389080947631072   F   F   F
 10.9280372092427758  3.9586649593759167 15.7819408145709872   F   F   F
  9.0810450598279502  1.6965707968795809 15.7819408145709872   F   F   F
  4.4635646862908844  3.5816492656265275 16.6249735343788672   F   F   F
  2.6165725368760588  1.3195551031301911 16.6249735343788672   F   F   F
  7.2340529104131255  3.2046335718771388 17.4680062541867400   T   T   T
  5.3870607609982981  0.9425394093808014 17.4680062541867400   T   T   T
 10.0045411345353621  2.8276178781277479 18.3110389739946235   T   T   T
  8.1575489851205383  0.5655237156314126 18.3110389739946235   T   T   T
  3.5400686115834712  2.4506021843783592 19.1540716938025000   T   T   T
  1.6930764621686449  0.1885080218820230 19.1540716938025000   T   T   T
  6.3105568357057109  2.0735864906289692 19.9971044136103764   T   T   T
  8.1575489851205383  4.3356806531253058 19.9971044136103764   T   T   T
  9.0810450598279520  1.6965707968795809 20.8401371334182492   T   T   T
 10.9280372092427758  3.9586649593759167 20.8401371334182492   T   T   T
  2.6165725368760597  1.3195551031301911 21.6831698532261257   T   T   T
  4.4635646862908871  3.5816492656265275 21.6831698532261257   T   T   T
  5.3870607609982972  4.7126963468746954 14.0958753749552343   F   F   F
  7.2340529104131237  6.9747905093710321 14.0958753749552343   F   F   F
 11.8515332839501877  8.8598689781179765 14.9389080947631072   F   F   F
 10.0045411345353621  6.5977748156216425 14.9389080947631072   F   F   F
 14.6220215080724287  8.4828532843685878 15.7819408145709872   F   F   F
 12.7750293586576031  6.2207591218722529 15.7819408145709872   F   F   F
  8.1575489851205365  8.1058375906191991 16.6249735343788672   F   F   F
  6.3105568357057118  5.8437434281228642 16.6249735343788672   F   F   F
 10.9280372092427775  7.7288218968698104 17.4680062541867400   T   T   T
  9.0810450598279502  5.4667277343734737 17.4680062541867400   T   T   T
 13.6985254333650150  7.3518062031204208 18.3110389739946235   T   T   T
 11.8515332839501912  5.0897120406240859 18.3110389739946235   T   T   T
  7.2340529104131237  6.9747905093710321 19.1540716938025000   T   T   T
  5.3870607609982972  4.7126963468746954 19.1540716938025000   T   T   T
 10.0045411345353621  6.5977748156216416 19.9971044136103764   T   T   T
 11.8515332839501895  8.8598689781179765 19.9971044136103764   T   T   T
 12.7750293586576067  6.2207591218722529 20.8401371334182492   T   T   T
 14.6220215080724287  8.4828532843685878 20.8401371334182492   T   T   T
  6.3105568357057127  5.8437434281228633 21.6831698532261257   T   T   T
  8.1575489851205401  8.1058375906191991 21.6831698532261257   T   T   T
  5.7295748027742830  1.2704294548717234 22.6952572252344957   T   T   T
  6.7964749434031129  0.9663678376847828 22.6682334389888602   T   T   T
  5.2103343905725703  0.7113822768974467 23.4914186250447656   T   T   T
  5.2974245129347421  0.9903161376125906 21.7086031700060360   T   T   T
  5.5892460628127507  2.6456511064947419 22.8215530911998741   T   T   T
