Ag C  H  O 
 1.0000000000000000
     9.2349610000000002    0.0000000000000000    0.0000000000000000
     7.3879690000000000    9.0483770000000003    0.0000000000000000
     0.0000000000000000    0.0000000000000000   37.5872940000000000
 Ag  C   H   O  
  40   1   3   1
Selective dynamics
Cartesian
  2.6583715804948871  0.1885080218820230 13.8267170437258642   F   F   F
  4.5053637299097131  2.4506021843783592 13.8267170437258642   F   F   F
  9.1228441034467789  4.3356806531253058 14.6697497635337371   F   F   F
  7.2758519540319515  2.0735864906289692 14.6697497635337371   F   F   F
 11.8933323275690181  3.9586649593759167 15.5127824833416170   F   F   F
 10.0463401781541926  1.6965707968795809 15.5127824833416170   F   F   F
  5.4288598046171259  3.5816492656265275 16.3558152031494970   F   F   F
  3.5818676552023012  1.3195551031301911 16.3558152031494970   F   F   F
  8.1993480287393670  3.2046335718771388 17.1988479229573699   T   T   T
  6.3523558793245405  0.9425394093808014 17.1988479229573699   T   T   T
 10.9698362528616045  2.8276178781277479 18.0418806427652534   T   T   T
  9.1228441034467807  0.5655237156314126 18.0418806427652534   T   T   T
  4.5053637299097131  2.4506021843783592 18.8849133625731298   T   T   T
  2.6583715804948871  0.1885080218820230 18.8849133625731298   T   T   T
  7.2758519540319533  2.0735864906289692 19.7279460823810062   T   T   T
  9.1228441034467807  4.3356806531253058 19.7279460823810062   T   T   T
 10.0463401781541943  1.6965707968795809 20.5709788021888791   T   T   T
 11.8933323275690181  3.9586649593759167 20.5709788021888791   T   T   T
  3.5818676552023021  1.3195551031301911 21.4140115219967555   T   T   T
  5.4288598046171295  3.5816492656265275 21.4140115219967555   T   T   T
  6.3523558793245396  4.7126963468746954 13.8267170437258642   F   F   F
  8.1993480287393652  6.9747905093710321 13.8267170437258642   F   F   F
 12.8168284022764301  8.8598689781179765 14.6697497635337371   F   F   F
 10.9698362528616045  6.5977748156216425 14.6697497635337371   F   F   F
 15.5873166263986711  8.4828532843685878 15.5127824833416170   F   F   F
 13.7403244769838455  6.2207591218722529 15.5127824833416170   F   F   F
  9.1228441034467789  8.1058375906191991 16.3558152031494970   F   F   F
  7.2758519540319533  5.8437434281228642 16.3558152031494970   F   F   F
 11.8933323275690199  7.7288218968698104 17.1988479229573699   T   T   T
 10.0463401781541926  5.4667277343734737 17.1988479229573699   T   T   T
 14.6638205516912574  7.3518062031204208 18.0418806427652534   T   T   T
 12.8168284022764336  5.0897120406240859 18.0418806427652534   T   T   T
  8.1993480287393652  6.9747905093710321 18.8849133625731298   T   T   T
  6.3523558793245396  4.7126963468746954 18.8849133625731298   T   T   T
 10.9698362528616045  6.5977748156216416 19.7279460823810062   T   T   T
 12.8168284022764318  8.8598689781179765 19.7279460823810062   T   T   T
 13.7403244769838491  6.2207591218722529 20.5709788021888791   T   T   T
 15.5873166263986711  8.4828532843685878 20.5709788021888791   T   T   T
  7.2758519540319551  5.8437434281228633 21.4140115219967555   T   T   T
  9.1228441034467824  8.1058375906191991 21.4140115219967555   T   T   T
  3.7094042284289181  2.3021964162586235 23.0931987350551609   T   T   T
  2.6212878249942198  2.5075704619394719 23.1658888724895000   T   T   T
  4.2562679345026950  2.9889013923830872 23.7605769562741358   T   T   T
  3.9986997276909411  2.5078610641008003 22.0383462643523771   T   T   T
  3.9987356442689657  0.9668206508430144 23.3380176253813545   T   T   T
