Ag C  H  O 
 1.0000000000000000
     9.2349610000000002    0.0000000000000000    0.0000000000000000
     7.3879690000000000    9.0483770000000003    0.0000000000000000
     0.0000000000000000    0.0000000000000000   37.5872940000000000
 Ag  C   H   O  
  40   1   3   1
Selective dynamics
Cartesian
  1.6930764621686449  0.1885080218820230 14.3285874665373782   F   F   F
  3.5400686115834712  2.4506021843783592 14.3285874665373782   F   F   F
  8.1575489851205365  4.3356806531253058 15.1716201863452511   F   F   F
  6.3105568357057100  2.0735864906289692 15.1716201863452511   F   F   F
 10.9280372092427758  3.9586649593759167 16.0146529061531311   F   F   F
  9.0810450598279502  1.6965707968795809 16.0146529061531311   F   F   F
  4.4635646862908844  3.5816492656265275 16.8576856259610111   F   F   F
  2.6165725368760588  1.3195551031301911 16.8576856259610111   F   F   F
  7.2340529104131255  3.2046335718771388 17.7007183457688839   T   T   T
  5.3870607609982981  0.9425394093808014 17.7007183457688839   T   T   T
 10.0045411345353621  2.8276178781277479 18.5437510655767674   T   T   T
  8.1575489851205383  0.5655237156314126 18.5437510655767674   T   T   T
  3.5400686115834712  2.4506021843783592 19.3867837853846439   T   T   T
  1.6930764621686449  0.1885080218820230 19.3867837853846439   T   T   T
  6.3105568357057109  2.0735864906289692 20.2298165051925203   T   T   T
  8.1575489851205383  4.3356806531253058 20.2298165051925203   T   T   T
  9.0810450598279520  1.6965707968795809 21.0728492250003931   T   T   T
 10.9280372092427758  3.9586649593759167 21.0728492250003931   T   T   T
  2.6165725368760597  1.3195551031301911 21.9158819448082696   T   T   T
  4.4635646862908871  3.5816492656265275 21.9158819448082696   T   T   T
  5.3870607609982972  4.7126963468746954 14.3285874665373782   F   F   F
  7.2340529104131237  6.9747905093710321 14.3285874665373782   F   F   F
 11.8515332839501877  8.8598689781179765 15.1716201863452511   F   F   F
 10.0045411345353621  6.5977748156216425 15.1716201863452511   F   F   F
 14.6220215080724287  8.4828532843685878 16.0146529061531311   F   F   F
 12.7750293586576031  6.2207591218722529 16.0146529061531311   F   F   F
  8.1575489851205365  8.1058375906191991 16.8576856259610111   F   F   F
  6.3105568357057118  5.8437434281228642 16.8576856259610111   F   F   F
 10.9280372092427775  7.7288218968698104 17.7007183457688839   T   T   T
  9.0810450598279502  5.4667277343734737 17.7007183457688839   T   T   T
 13.6985254333650150  7.3518062031204208 18.5437510655767674   T   T   T
 11.8515332839501912  5.0897120406240859 18.5437510655767674   T   T   T
  7.2340529104131237  6.9747905093710321 19.3867837853846439   T   T   T
  5.3870607609982972  4.7126963468746954 19.3867837853846439   T   T   T
 10.0045411345353621  6.5977748156216416 20.2298165051925203   T   T   T
 11.8515332839501895  8.8598689781179765 20.2298165051925203   T   T   T
 12.7750293586576067  6.2207591218722529 21.0728492250003931   T   T   T
 14.6220215080724287  8.4828532843685878 21.0728492250003931   T   T   T
  6.3105568357057127  5.8437434281228633 21.9158819448082696   T   T   T
  8.1575489851205401  8.1058375906191991 21.9158819448082696   T   T   T
  7.2485629770445783  3.4756765323863670 22.4661615103054153   T   T   T
  8.1886534744844059  4.0391982237088966 22.6397495921991236   T   T   T
  6.8386634330853635  3.7441980799546846 21.4782870902672194   T   T   T
  6.5370819192249474  3.7987410133273665 23.2587065334626217   T   T   T
  7.4317973360477456  2.1084663152088856 22.6212059679234798   T   T   T
