Ag C  H  O 
 1.0000000000000000
     9.2349610000000002    0.0000000000000000    0.0000000000000000
     7.3879690000000000    9.0483770000000003    0.0000000000000000
     0.0000000000000000    0.0000000000000000   37.5872940000000000
 Ag  C   H   O  
  40   1   3   1
Selective dynamics
Cartesian
  2.0372950652047637  0.1885080218820230 14.0958753749552343   F   F   F
  3.8842872146195901  2.4506021843783592 14.0958753749552343   F   F   F
  8.5017675881566550  4.3356806531253058 14.9389080947631072   F   F   F
  6.6547754387418285  2.0735864906289692 14.9389080947631072   F   F   F
 11.2722558122788961  3.9586649593759167 15.7819408145709872   F   F   F
  9.4252636628640687  1.6965707968795809 15.7819408145709872   F   F   F
  4.8077832893270029  3.5816492656265275 16.6249735343788672   F   F   F
  2.9607911399121778  1.3195551031301911 16.6249735343788672   F   F   F
  7.5782715134492440  3.2046335718771388 17.4680062541867400   T   T   T
  5.7312793640344175  0.9425394093808014 17.4680062541867400   T   T   T
 10.3487597375714806  2.8276178781277479 18.3110389739946235   T   T   T
  8.5017675881566568  0.5655237156314126 18.3110389739946235   T   T   T
  3.8842872146195901  2.4506021843783592 19.1540716938025000   T   T   T
  2.0372950652047637  0.1885080218820230 19.1540716938025000   T   T   T
  6.6547754387418294  2.0735864906289692 19.9971044136103764   T   T   T
  8.5017675881566568  4.3356806531253058 19.9971044136103764   T   T   T
  9.4252636628640722  1.6965707968795809 20.8401371334182492   T   T   T
 11.2722558122788961  3.9586649593759167 20.8401371334182492   T   T   T
  2.9607911399121787  1.3195551031301911 21.6831698532261257   T   T   T
  4.8077832893270056  3.5816492656265275 21.6831698532261257   T   T   T
  5.7312793640344157  4.7126963468746954 14.0958753749552343   F   F   F
  7.5782715134492422  6.9747905093710321 14.0958753749552343   F   F   F
 12.1957518869863080  8.8598689781179765 14.9389080947631072   F   F   F
 10.3487597375714806  6.5977748156216425 14.9389080947631072   F   F   F
 14.9662401111085472  8.4828532843685878 15.7819408145709872   F   F   F
 13.1192479616937234  6.2207591218722529 15.7819408145709872   F   F   F
  8.5017675881566568  8.1058375906191991 16.6249735343788672   F   F   F
  6.6547754387418303  5.8437434281228642 16.6249735343788672   F   F   F
 11.2722558122788961  7.7288218968698104 17.4680062541867400   T   T   T
  9.4252636628640687  5.4667277343734737 17.4680062541867400   T   T   T
 14.0427440364011353  7.3518062031204208 18.3110389739946235   T   T   T
 12.1957518869863115  5.0897120406240859 18.3110389739946235   T   T   T
  7.5782715134492422  6.9747905093710321 19.1540716938025000   T   T   T
  5.7312793640344157  4.7126963468746954 19.1540716938025000   T   T   T
 10.3487597375714806  6.5977748156216416 19.9971044136103764   T   T   T
 12.1957518869863080  8.8598689781179765 19.9971044136103764   T   T   T
 13.1192479616937270  6.2207591218722529 20.8401371334182492   T   T   T
 14.9662401111085472  8.4828532843685878 20.8401371334182492   T   T   T
  6.6547754387418312  5.8437434281228633 21.6831698532261257   T   T   T
  8.5017675881566586  8.1058375906191991 21.6831698532261257   T   T   T
  5.7931359258873369  4.0208727581177603 22.6952572252344957   T   T   T
  4.7262357852585071  4.3249343753047009 22.6682334389888602   T   T   T
  6.3123763380890496  4.5799199360920371 23.4914186250447656   T   T   T
  6.2252862157268778  4.3009860753768931 21.7086031700060360   T   T   T
  5.9334646658488692  2.6456511064947419 22.8215530911998741   T   T   T
