Ag C  H  O 
 1.0000000000000000
     9.2349610000000002    0.0000000000000000    0.0000000000000000
     7.3879690000000000    9.0483770000000003    0.0000000000000000
     0.0000000000000000    0.0000000000000000   37.5872940000000000
 Ag  C   H   O  
  40   1   3   1
Selective dynamics
Cartesian
  1.6930764621686449  0.1885080218820230 14.0758783104788190   F   F   F
  3.5400686115834712  2.4506021843783592 14.0758783104788190   F   F   F
  8.1575489851205365  4.3356806531253058 14.9189110302866901   F   F   F
  6.3105568357057100  2.0735864906289692 14.9189110302866901   F   F   F
 10.9280372092427758  3.9586649593759167 15.7619437500945700   F   F   F
  9.0810450598279502  1.6965707968795809 15.7619437500945700   F   F   F
  4.4635646862908844  3.5816492656265275 16.6049764699024500   F   F   F
  2.6165725368760588  1.3195551031301911 16.6049764699024500   F   F   F
  7.2340529104131255  3.2046335718771388 17.4480091897103229   T   T   T
  5.3870607609982981  0.9425394093808014 17.4480091897103229   T   T   T
 10.0045411345353621  2.8276178781277479 18.2910419095182064   T   T   T
  8.1575489851205383  0.5655237156314126 18.2910419095182064   T   T   T
  3.5400686115834712  2.4506021843783592 19.1340746293260828   T   T   T
  1.6930764621686449  0.1885080218820230 19.1340746293260828   T   T   T
  6.3105568357057109  2.0735864906289692 19.9771073491339592   T   T   T
  8.1575489851205383  4.3356806531253058 19.9771073491339592   T   T   T
  9.0810450598279520  1.6965707968795809 20.8201400689418321   T   T   T
 10.9280372092427758  3.9586649593759167 20.8201400689418321   T   T   T
  2.6165725368760597  1.3195551031301911 21.6631727887497085   T   T   T
  4.4635646862908871  3.5816492656265275 21.6631727887497085   T   T   T
  5.3870607609982972  4.7126963468746954 14.0758783104788190   F   F   F
  7.2340529104131237  6.9747905093710321 14.0758783104788190   F   F   F
 11.8515332839501877  8.8598689781179765 14.9189110302866901   F   F   F
 10.0045411345353621  6.5977748156216425 14.9189110302866901   F   F   F
 14.6220215080724287  8.4828532843685878 15.7619437500945700   F   F   F
 12.7750293586576031  6.2207591218722529 15.7619437500945700   F   F   F
  8.1575489851205365  8.1058375906191991 16.6049764699024500   F   F   F
  6.3105568357057118  5.8437434281228642 16.6049764699024500   F   F   F
 10.9280372092427775  7.7288218968698104 17.4480091897103229   T   T   T
  9.0810450598279502  5.4667277343734737 17.4480091897103229   T   T   T
 13.6985254333650150  7.3518062031204208 18.2910419095182064   T   T   T
 11.8515332839501912  5.0897120406240859 18.2910419095182064   T   T   T
  7.2340529104131237  6.9747905093710321 19.1340746293260828   T   T   T
  5.3870607609982972  4.7126963468746954 19.1340746293260828   T   T   T
 10.0045411345353621  6.5977748156216416 19.9771073491339592   T   T   T
 11.8515332839501895  8.8598689781179765 19.9771073491339592   T   T   T
 12.7750293586576067  6.2207591218722529 20.8201400689418321   T   T   T
 14.6220215080724287  8.4828532843685878 20.8201400689418321   T   T   T
  6.3105568357057127  5.8437434281228633 21.6631727887497085   T   T   T
  8.1575489851205401  8.1058375906191991 21.6631727887497085   T   T   T
  7.6150316950509129  3.4756765323863670 22.5235412694829833   T   T   T
  6.6749411976110853  4.0391982237088966 22.3499531875892750   T   T   T
  8.0249312390101277  3.7441980799546846 23.5114156895211792   T   T   T
  8.3265127528705438  3.7987410133273665 21.7309962463257769   T   T   T
  7.4317973360477456  2.1084663152088856 22.3684968118649188   T   T   T
