Ag C  H  O 
 1.0000000000000000
    11.6814040000000006    0.0000000000000000    0.0000000000000000
     0.0000000000000000    8.2599999999999998    0.0000000000000000
     0.0000000000000000    0.0000000000000000   37.3008779999999973
 Ag  C   H   O  
  48   1   3   1
Selective dynamics
Cartesian
 -0.0000000126008821  1.0324999999999998 13.0914783705822515   F   F   F
  4.3805264968497788  3.0974999999999997 14.5516538737324765   F   F   F
  1.4601754905493385  3.0974999999999997 14.5516538737324765   F   F   F
  2.9203509936995591  1.0324999999999998 13.0914783705822515   F   F   F
  2.9203509936995591  1.0324999999999998 16.0118293768826874   F   F   F
  1.4601754905493385  3.0974999999999997 17.4720048800329160   T   T   T
  4.3805264968497797  3.0974999999999997 17.4720048800329160   T   T   T
 -0.0000000126008821  1.0324999999999998 16.0118293768826980   F   F   F
  5.8407019999999994  1.0324999999999998 18.9321803831831303   T   T   T
  4.3805264968497797  3.0974999999999997 20.3923558863333554   T   T   T
  1.4601754905493385  3.0974999999999997 20.3923558863333554   T   T   T
  2.9203509936995578  1.0324999999999998 18.9321803831831303   T   T   T
 -0.0000000126008821  5.1624999999999996 13.0914783705822515   F   F   F
  4.3805264968497788  7.2275000000000000 14.5516538737324765   F   F   F
  1.4601754905493385  7.2275000000000000 14.5516538737324765   F   F   F
  2.9203509936995591  5.1624999999999996 13.0914783705822515   F   F   F
  2.9203509936995591  5.1624999999999996 16.0118293768826874   F   F   F
  1.4601754905493385  7.2275000000000000 17.4720048800329160   T   T   T
  4.3805264968497797  7.2275000000000000 17.4720048800329160   T   T   T
 -0.0000000126008821  5.1624999999999996 16.0118293768826980   F   F   F
  5.8407019999999994  5.1624999999999996 18.9321803831831303   T   T   T
  4.3805264968497797  7.2275000000000000 20.3923558863333554   T   T   T
  1.4601754905493385  7.2275000000000000 20.3923558863333554   T   T   T
  2.9203509936995578  5.1624999999999996 18.9321803831831303   T   T   T
  5.8407020000000003  1.0324999999999998 13.0914783705822515   F   F   F
 10.2212285094506612  3.0974999999999997 14.5516538737324765   F   F   F
  7.3008775031502209  3.0974999999999997 14.5516538737324765   F   F   F
  8.7610530063004415  1.0324999999999998 13.0914783705822515   F   F   F
  8.7610530063004415  1.0324999999999998 16.0118293768826874   F   F   F
  7.3008775031502209  3.0974999999999997 17.4720048800329160   T   T   T
 10.2212285094506612  3.0974999999999997 17.4720048800329160   T   T   T
  5.8407020000000003  1.0324999999999998 16.0118293768826980   F   F   F
 11.6814040126008827  1.0324999999999998 18.9321803831831303   T   T   T
 10.2212285094506612  3.0974999999999997 20.3923558863333554   T   T   T
  7.3008775031502209  3.0974999999999997 20.3923558863333554   T   T   T
  8.7610530063004397  1.0324999999999998 18.9321803831831303   T   T   T
  5.8407020000000003  5.1624999999999996 13.0914783705822515   F   F   F
 10.2212285094506612  7.2275000000000000 14.5516538737324765   F   F   F
  7.3008775031502209  7.2275000000000000 14.5516538737324765   F   F   F
  8.7610530063004415  5.1624999999999996 13.0914783705822515   F   F   F
  8.7610530063004415  5.1624999999999996 16.0118293768826874   F   F   F
  7.3008775031502209  7.2275000000000000 17.4720048800329160   T   T   T
 10.2212285094506612  7.2275000000000000 17.4720048800329160   T   T   T
  5.8407020000000003  5.1624999999999996 16.0118293768826980   F   F   F
 11.6814040126008827  5.1624999999999996 18.9321803831831303   T   T   T
 10.2212285094506612  7.2275000000000000 20.3923558863333554   T   T   T
  7.3008775031502209  7.2275000000000000 20.3923558863333554   T   T   T
  8.7610530063004397  5.1624999999999996 18.9321803831831303   T   T   T
  4.3805264968497797  3.0974999999999993 23.7804759791610181   T   T   T
  3.3554787451501253  3.2040961990936827 24.1920267284222348   T   T   T
  4.8549176403435554  2.1991710665700621 24.2093996294177458   T   T   T
  4.9450387622129286  4.0004492925227604 24.1040683857472757   T   T   T
  4.3805264968497797  3.0974999999999993 22.3923558863333554   T   T   T
