ALGO = Normal
EDIFF = 1e-06
EDIFFG = -0.02
ENCUT = 500.0
IBRION = 2
IDIPOL = 3
ISIF = 2
ISMEAR = 0
ISPIN = 1
ISYM = 0
IVDW = 12
LCHARG = False
LDIPOL = True
LREAL = False
LWAVE = False
NSW = 150
PREC = Accurate
SIGMA = 0.05
SYSTEM = Ag_enum_screening
