Ag C  H  O 
 1.0000000000000000
     9.2349610000000002    0.0000000000000000    0.0000000000000000
     7.3879690000000000    9.0483770000000003    0.0000000000000000
     0.0000000000000000    0.0000000000000000   37.5872940000000000
 Ag  C   H   O  
  40   1   3   1
Selective dynamics
Cartesian
  2.2949163485754509  0.1885080218820230 13.3881610286577661   F   F   F
  4.1419084979902774  2.4506021843783592 13.3881610286577661   F   F   F
  8.7593888715273422  4.3356806531253058 14.2311937484656390   F   F   F
  6.9123967221125158  2.0735864906289692 14.2311937484656390   F   F   F
 11.5298770956495815  3.9586649593759167 15.0742264682735190   F   F   F
  9.6828849462347577  1.6965707968795809 15.0742264682735190   F   F   F
  5.0654045726976902  3.5816492656265275 15.9172591880813989   F   F   F
  3.2184124232828650  1.3195551031301911 15.9172591880813989   F   F   F
  7.8358927968199312  3.2046335718771388 16.7602919078892718   T   T   T
  5.9889006474051047  0.9425394093808014 16.7602919078892718   T   T   T
 10.6063810209421696  2.8276178781277479 17.6033246276971553   T   T   T
  8.7593888715273458  0.5655237156314126 17.6033246276971553   T   T   T
  4.1419084979902774  2.4506021843783592 18.4463573475050318   T   T   T
  2.2949163485754509  0.1885080218820230 18.4463573475050318   T   T   T
  6.9123967221125167  2.0735864906289692 19.2893900673129082   T   T   T
  8.7593888715273440  4.3356806531253058 19.2893900673129082   T   T   T
  9.6828849462347577  1.6965707968795809 20.1324227871207810   T   T   T
 11.5298770956495815  3.9586649593759167 20.1324227871207810   T   T   T
  3.2184124232828659  1.3195551031301911 20.9754555069286575   T   T   T
  5.0654045726976928  3.5816492656265275 20.9754555069286575   T   T   T
  5.9889006474051030  4.7126963468746954 13.3881610286577661   F   F   F
  7.8358927968199295  6.9747905093710321 13.3881610286577661   F   F   F
 12.4533731703569934  8.8598689781179765 14.2311937484656390   F   F   F
 10.6063810209421696  6.5977748156216425 14.2311937484656390   F   F   F
 15.2238613944792363  8.4828532843685878 15.0742264682735190   F   F   F
 13.3768692450644089  6.2207591218722529 15.0742264682735190   F   F   F
  8.7593888715273422  8.1058375906191991 15.9172591880813989   F   F   F
  6.9123967221125175  5.8437434281228642 15.9172591880813989   F   F   F
 11.5298770956495851  7.7288218968698104 16.7602919078892718   T   T   T
  9.6828849462347577  5.4667277343734737 16.7602919078892718   T   T   T
 14.3003653197718208  7.3518062031204208 17.6033246276971553   T   T   T
 12.4533731703569970  5.0897120406240859 17.6033246276971553   T   T   T
  7.8358927968199295  6.9747905093710321 18.4463573475050318   T   T   T
  5.9889006474051030  4.7126963468746954 18.4463573475050318   T   T   T
 10.6063810209421696  6.5977748156216416 19.2893900673129082   T   T   T
 12.4533731703569970  8.8598689781179765 19.2893900673129082   T   T   T
 13.3768692450644124  6.2207591218722529 20.1324227871207810   T   T   T
 15.2238613944792363  8.4828532843685878 20.1324227871207810   T   T   T
  6.9123967221125184  5.8437434281228633 20.9754555069286575   T   T   T
  8.7593888715273458  8.1058375906191991 20.9754555069286575   T   T   T
  3.9246118281895770  2.3021964162586235 23.1442805006394501   T   T   T
  5.0127282316242754  2.5075704619394719 23.0715903632051109   T   T   T
  3.3777481221157997  2.9889013923830872 22.4769022794204751   T   T   T
  3.6353163289275541  2.5078610641008003 24.1991329713422338   T   T   T
  3.6352804123495295  0.9668206508430144 22.8994616103132564   T   T   T
