Ag C  H  O 
 1.0000000000000000
     9.2349610000000002    0.0000000000000000    0.0000000000000000
     7.3879690000000000    9.0483770000000003    0.0000000000000000
     0.0000000000000000    0.0000000000000000   37.5872940000000000
 Ag  C   H   O  
  40   1   3   1
Selective dynamics
Cartesian
  2.6537513056509781  0.1885080218820230 13.8334165034573218   F   F   F
  4.5007434550658045  2.4506021843783592 13.8334165034573218   F   F   F
  9.1182238286028685  4.3356806531253058 14.6764492232651911   F   F   F
  7.2712316791880429  2.0735864906289692 14.6764492232651911   F   F   F
 11.8887120527251096  3.9586649593759167 15.5194819430730711   F   F   F
 10.0417199033102840  1.6965707968795809 15.5194819430730711   F   F   F
  5.4242395297732173  3.5816492656265275 16.3625146628809510   F   F   F
  3.5772473803583922  1.3195551031301911 16.3625146628809510   F   F   F
  8.1947277538954584  3.2046335718771388 17.2055473826888239   T   T   T
  6.3477356044806310  0.9425394093808014 17.2055473826888239   T   T   T
 10.9652159780176959  2.8276178781277479 18.0485801024967074   T   T   T
  9.1182238286028721  0.5655237156314126 18.0485801024967074   T   T   T
  4.5007434550658045  2.4506021843783592 18.8916128223045838   T   T   T
  2.6537513056509781  0.1885080218820230 18.8916128223045838   T   T   T
  7.2712316791880438  2.0735864906289692 19.7346455421124602   T   T   T
  9.1182238286028721  4.3356806531253058 19.7346455421124602   T   T   T
 10.0417199033102857  1.6965707968795809 20.5776782619203331   T   T   T
 11.8887120527251096  3.9586649593759167 20.5776782619203331   T   T   T
  3.5772473803583931  1.3195551031301911 21.4207109817282095   T   T   T
  5.4242395297732200  3.5816492656265275 21.4207109817282095   T   T   T
  6.3477356044806310  4.7126963468746954 13.8334165034573218   F   F   F
  8.1947277538954566  6.9747905093710321 13.8334165034573218   F   F   F
 12.8122081274325215  8.8598689781179765 14.6764492232651911   F   F   F
 10.9652159780176959  6.5977748156216425 14.6764492232651911   F   F   F
 15.5826963515547625  8.4828532843685878 15.5194819430730711   F   F   F
 13.7357042021399369  6.2207591218722529 15.5194819430730711   F   F   F
  9.1182238286028703  8.1058375906191991 16.3625146628809510   F   F   F
  7.2712316791880447  5.8437434281228642 16.3625146628809510   F   F   F
 11.8887120527251113  7.7288218968698104 17.2055473826888239   T   T   T
 10.0417199033102840  5.4667277343734737 17.2055473826888239   T   T   T
 14.6592002768473488  7.3518062031204208 18.0485801024967074   T   T   T
 12.8122081274325250  5.0897120406240859 18.0485801024967074   T   T   T
  8.1947277538954566  6.9747905093710321 18.8916128223045838   T   T   T
  6.3477356044806310  4.7126963468746954 18.8916128223045838   T   T   T
 10.9652159780176959  6.5977748156216416 19.7346455421124602   T   T   T
 12.8122081274325232  8.8598689781179765 19.7346455421124602   T   T   T
 13.7357042021399405  6.2207591218722529 20.5776782619203331   T   T   T
 15.5826963515547625  8.4828532843685878 20.5776782619203331   T   T   T
  7.2712316791880456  5.8437434281228633 21.4207109817282095   T   T   T
  9.1182238286028721  8.1058375906191991 21.4207109817282095   T   T   T
  4.6293604798391677  3.4241227577566145 23.0924382610189909   T   T   T
  3.5413865708337671  3.6287980064719561 23.1691225360043056   T   T   T
  5.1786073713001244  4.1146611834380336 23.7538774965426782   T   T   T
  4.9135929354521473  3.6248322632634276 22.0352574941732726   T   T   T
  4.9211430245425500  2.0902596962554361 23.3425375850504615   T   T   T
