Ag C  H  O 
 1.0000000000000000
    11.6814040000000006    0.0000000000000000    0.0000000000000000
     0.0000000000000000    8.2599999999999998    0.0000000000000000
     0.0000000000000000    0.0000000000000000   37.3008779999999973
 Ag  C   H   O  
  48   1   3   1
Selective dynamics
Cartesian
 -0.0000000126008821  1.0324999999999998 13.9158796511970344   F   F   F
  4.3805264968497788  3.0974999999999997 15.3760551543472594   F   F   F
  1.4601754905493385  3.0974999999999997 15.3760551543472594   F   F   F
  2.9203509936995591  1.0324999999999998 13.9158796511970344   F   F   F
  2.9203509936995591  1.0324999999999998 16.8362306574974703   F   F   F
  1.4601754905493385  3.0974999999999997 18.2964061606476989   T   T   T
  4.3805264968497797  3.0974999999999997 18.2964061606476989   T   T   T
 -0.0000000126008821  1.0324999999999998 16.8362306574974809   F   F   F
  5.8407019999999994  1.0324999999999998 19.7565816637979133   T   T   T
  4.3805264968497797  3.0974999999999997 21.2167571669481383   T   T   T
  1.4601754905493385  3.0974999999999997 21.2167571669481383   T   T   T
  2.9203509936995578  1.0324999999999998 19.7565816637979133   T   T   T
 -0.0000000126008821  5.1624999999999996 13.9158796511970344   F   F   F
  4.3805264968497788  7.2275000000000000 15.3760551543472594   F   F   F
  1.4601754905493385  7.2275000000000000 15.3760551543472594   F   F   F
  2.9203509936995591  5.1624999999999996 13.9158796511970344   F   F   F
  2.9203509936995591  5.1624999999999996 16.8362306574974703   F   F   F
  1.4601754905493385  7.2275000000000000 18.2964061606476989   T   T   T
  4.3805264968497797  7.2275000000000000 18.2964061606476989   T   T   T
 -0.0000000126008821  5.1624999999999996 16.8362306574974809   F   F   F
  5.8407019999999994  5.1624999999999996 19.7565816637979133   T   T   T
  4.3805264968497797  7.2275000000000000 21.2167571669481383   T   T   T
  1.4601754905493385  7.2275000000000000 21.2167571669481383   T   T   T
  2.9203509936995578  5.1624999999999996 19.7565816637979133   T   T   T
  5.8407020000000003  1.0324999999999998 13.9158796511970344   F   F   F
 10.2212285094506612  3.0974999999999997 15.3760551543472594   F   F   F
  7.3008775031502209  3.0974999999999997 15.3760551543472594   F   F   F
  8.7610530063004415  1.0324999999999998 13.9158796511970344   F   F   F
  8.7610530063004415  1.0324999999999998 16.8362306574974703   F   F   F
  7.3008775031502209  3.0974999999999997 18.2964061606476989   T   T   T
 10.2212285094506612  3.0974999999999997 18.2964061606476989   T   T   T
  5.8407020000000003  1.0324999999999998 16.8362306574974809   F   F   F
 11.6814040126008827  1.0324999999999998 19.7565816637979133   T   T   T
 10.2212285094506612  3.0974999999999997 21.2167571669481383   T   T   T
  7.3008775031502209  3.0974999999999997 21.2167571669481383   T   T   T
  8.7610530063004397  1.0324999999999998 19.7565816637979133   T   T   T
  5.8407020000000003  5.1624999999999996 13.9158796511970344   F   F   F
 10.2212285094506612  7.2275000000000000 15.3760551543472594   F   F   F
  7.3008775031502209  7.2275000000000000 15.3760551543472594   F   F   F
  8.7610530063004415  5.1624999999999996 13.9158796511970344   F   F   F
  8.7610530063004415  5.1624999999999996 16.8362306574974703   F   F   F
  7.3008775031502209  7.2275000000000000 18.2964061606476989   T   T   T
 10.2212285094506612  7.2275000000000000 18.2964061606476989   T   T   T
  5.8407020000000003  5.1624999999999996 16.8362306574974809   F   F   F
 11.6814040126008827  5.1624999999999996 19.7565816637979133   T   T   T
 10.2212285094506612  7.2275000000000000 21.2167571669481383   T   T   T
  7.3008775031502209  7.2275000000000000 21.2167571669481383   T   T   T
  8.7610530063004397  5.1624999999999996 19.7565816637979133   T   T   T
  5.1106142484248895  3.4531200928276631 22.4866694153730258   T   T   T
  4.0855664967252352  3.8646708420888780 22.3800732162793423   T   T   T
  5.5850053919186653  3.8820437430843926 23.3849983488029629   T   T   T
  5.6751265137880385  3.7767124994139207 21.5837201228502629   T   T   T
  5.1106142484248895  2.0650000000000004 22.4866694153730258   T   T   T
