Ag C  H  O 
 1.0000000000000000
     9.2349610000000002    0.0000000000000000    0.0000000000000000
     7.3879690000000000    9.0483770000000003    0.0000000000000000
     0.0000000000000000    0.0000000000000000   37.5872940000000000
 Ag  C   H   O  
  40   1   3   1
Selective dynamics
Cartesian
  0.9256928968938456  0.2314243444045312 14.2821761375546714   F   F   F
  2.7726850463086716  2.4935185069008674 14.2821761375546714   F   F   F
  7.3901654198457365  4.3785969756478140 15.1252088573625407   F   F   F
  5.5431732704309109  2.1165028131514774 15.1252088573625407   F   F   F
 10.1606536439679775  4.0015812818984244 15.9682415771704207   F   F   F
  8.3136614945531520  1.7394871194020891 15.9682415771704207   F   F   F
  3.6961811210160849  3.6245655881490357 16.8112742969783007   F   F   F
  1.8491889716012597  1.3624714256526993 16.8112742969783007   F   F   F
  6.4666693451383264  3.2475498943996470 17.6543070167861735   T   T   T
  4.6196771957234990  0.9854557319033096 17.6543070167861735   T   T   T
  9.2371575692605639  2.8705342006502561 18.4973397365940571   T   T   T
  7.3901654198457400  0.6084400381539208 18.4973397365940571   T   T   T
  2.7726850463086716  2.4935185069008674 19.3403724564019335   T   T   T
  0.9256928968938456  0.2314243444045312 19.3403724564019335   T   T   T
  5.5431732704309109  2.1165028131514774 20.1834051762098099   T   T   T
  7.3901654198457383  4.3785969756478140 20.1834051762098099   T   T   T
  8.3136614945531537  1.7394871194020891 21.0264378960176828   T   T   T
 10.1606536439679775  4.0015812818984244 21.0264378960176828   T   T   T
  1.8491889716012606  1.3624714256526993 21.8694706158255592   T   T   T
  3.6961811210160875  3.6245655881490357 21.8694706158255592   T   T   T
  4.6196771957234981  4.7556126693972036 14.2821761375546714   F   F   F
  6.4666693451383246  7.0177068318935403 14.2821761375546714   F   F   F
 11.0841497186753895  8.9027853006404847 15.1252088573625407   F   F   F
  9.2371575692605639  6.6406911381441507 15.1252088573625407   F   F   F
 13.8546379427976305  8.5257696068910960 15.9682415771704207   F   F   F
 12.0076457933828049  6.2636754443947611 15.9682415771704207   F   F   F
  7.3901654198457383  8.1487539131417073 16.8112742969783007   F   F   F
  5.5431732704309127  5.8866597506453724 16.8112742969783007   F   F   F
 10.1606536439679793  7.7717382193923186 17.6543070167861735   T   T   T
  8.3136614945531520  5.5096440568959819 17.6543070167861735   T   T   T
 12.9311418680902168  7.3947225256429290 18.4973397365940571   T   T   T
 11.0841497186753930  5.1326283631465941 18.4973397365940571   T   T   T
  6.4666693451383246  7.0177068318935403 19.3403724564019335   T   T   T
  4.6196771957234981  4.7556126693972036 19.3403724564019335   T   T   T
  9.2371575692605639  6.6406911381441498 20.1834051762098099   T   T   T
 11.0841497186753912  8.9027853006404847 20.1834051762098099   T   T   T
 12.0076457933828085  6.2636754443947611 21.0264378960176828   T   T   T
 13.8546379427976305  8.5257696068910960 21.0264378960176828   T   T   T
  5.5431732704309127  5.8866597506453715 21.8694706158255592   T   T   T
  7.3901654198457400  8.1487539131417073 21.8694706158255592   T   T   T
  8.1524753492613122  0.8600272271062090 22.6120466153063937   T   T   T
  7.3281362125266725  0.1455916993595148 22.8157781211764821   T   T   T
  8.4947299294326069  0.7358881267505959 21.5711486310990423   T   T   T
  8.9806746687760004  0.5908772656390751 23.3051178624453286   T   T   T
  7.7868060008445052  2.1659891857376605 22.9080646592628554   T   T   T
