Ag C  H  O 
 1.0000000000000000
     9.2349610000000002    0.0000000000000000    0.0000000000000000
     7.3879690000000000    9.0483770000000003    0.0000000000000000
     0.0000000000000000    0.0000000000000000   37.5872940000000000
 Ag  C   H   O  
  40   1   3   1
Selective dynamics
Cartesian
  1.2308673026191275  0.1885080218820230 13.4705039959568325   F   F   F
  3.0778594520339535  2.4506021843783592 13.4705039959568325   F   F   F
  7.6953398255710184  4.3356806531253058 14.3135367157647053   F   F   F
  5.8483476761561928  2.0735864906289692 14.3135367157647053   F   F   F
 10.4658280496932594  3.9586649593759167 15.1565694355725853   F   F   F
  8.6188359002784338  1.6965707968795809 15.1565694355725853   F   F   F
  4.0013555267413672  3.5816492656265275 15.9996021553804653   F   F   F
  2.1543633773265416  1.3195551031301911 15.9996021553804653   F   F   F
  6.7718437508636082  3.2046335718771388 16.8426348751883381   T   T   T
  4.9248516014487809  0.9425394093808014 16.8426348751883381   T   T   T
  9.5423319749858457  2.8276178781277479 17.6856675949962217   T   T   T
  7.6953398255710219  0.5655237156314126 17.6856675949962217   T   T   T
  3.0778594520339535  2.4506021843783592 18.5287003148040981   T   T   T
  1.2308673026191275  0.1885080218820230 18.5287003148040981   T   T   T
  5.8483476761561928  2.0735864906289692 19.3717330346119745   T   T   T
  7.6953398255710201  4.3356806531253058 19.3717330346119745   T   T   T
  8.6188359002784356  1.6965707968795809 20.2147657544198474   T   T   T
 10.4658280496932594  3.9586649593759167 20.2147657544198474   T   T   T
  2.1543633773265425  1.3195551031301911 21.0577984742277238   T   T   T
  4.0013555267413690  3.5816492656265275 21.0577984742277238   T   T   T
  4.9248516014487800  4.7126963468746954 13.4705039959568325   F   F   F
  6.7718437508636065  6.9747905093710321 13.4705039959568325   F   F   F
 11.3893241244006713  8.8598689781179765 14.3135367157647053   F   F   F
  9.5423319749858457  6.5977748156216425 14.3135367157647053   F   F   F
 14.1598123485229124  8.4828532843685878 15.1565694355725853   F   F   F
 12.3128201991080868  6.2207591218722529 15.1565694355725853   F   F   F
  7.6953398255710201  8.1058375906191991 15.9996021553804653   F   F   F
  5.8483476761561946  5.8437434281228642 15.9996021553804653   F   F   F
 10.4658280496932612  7.7288218968698104 16.8426348751883381   T   T   T
  8.6188359002784338  5.4667277343734737 16.8426348751883381   T   T   T
 13.2363162738154987  7.3518062031204208 17.6856675949962217   T   T   T
 11.3893241244006749  5.0897120406240859 17.6856675949962217   T   T   T
  6.7718437508636065  6.9747905093710321 18.5287003148040981   T   T   T
  4.9248516014487800  4.7126963468746954 18.5287003148040981   T   T   T
  9.5423319749858457  6.5977748156216416 19.3717330346119745   T   T   T
 11.3893241244006731  8.8598689781179765 19.3717330346119745   T   T   T
 12.3128201991080903  6.2207591218722529 20.2147657544198474   T   T   T
 14.1598123485229124  8.4828532843685878 20.2147657544198474   T   T   T
  5.8483476761561946  5.8437434281228633 21.0577984742277238   T   T   T
  7.6953398255710219  8.1058375906191991 21.0577984742277238   T   T   T
  8.4576497549865941  1.8270548192586906 23.4023544762964733   T   T   T
  7.6333106182519543  2.0307863251287808 24.1167900040431675   T   T   T
  8.7999043351578887  0.7861568350513393 23.5264935766520864   T   T   T
  9.2858490745012823  2.5201260663976255 23.6715044377636055   T   T   T
  8.0919804065697871  2.1230728632151523 22.0963925176650200   T   T   T
