Ag
 1.0000000000000000
    11.6814040252017648    0.0000000000000000    0.0000000000000000
     0.0000000000000000    8.2599999999999998    0.0000000000000000
     0.0000000000000000    0.0000000000000000   37.3008775157511039
 Ag 
  48
Selective dynamics
Direct
  0.0000000000000000  0.0000000000000000  0.4021353115262751   F   F   F
  0.3749999999999999  0.2500000000000000  0.4412811869157651   F   F   F
  0.1250000000000000  0.2500000000000000  0.4412811869157651   F   F   F
  0.2500000000000000  0.0000000000000000  0.4021353115262751   F   F   F
  0.2500000000000000  0.0000000000000000  0.4804270623052549   F   F   F
  0.1250000000000000  0.2500000000000000  0.5195729376947450   T   T   T
  0.3750000000000000  0.2500000000000000  0.5195729376947450   T   T   T
  0.0000000000000000  0.0000000000000000  0.4804270623052551   F   F   F
  0.4999999999999999  0.0000000000000000  0.5587188130842349   T   T   T
  0.3750000000000000  0.2500000000000000  0.5978646884737249   T   T   T
  0.1250000000000000  0.2500000000000000  0.5978646884737249   T   T   T
  0.2499999999999999  0.0000000000000000  0.5587188130842349   T   T   T
  0.0000000000000000  0.5000000000000000  0.4021353115262751   F   F   F
  0.3749999999999999  0.7500000000000000  0.4412811869157651   F   F   F
  0.1250000000000000  0.7500000000000000  0.4412811869157651   F   F   F
  0.2500000000000000  0.5000000000000000  0.4021353115262751   F   F   F
  0.2500000000000000  0.5000000000000000  0.4804270623052549   F   F   F
  0.1250000000000000  0.7500000000000000  0.5195729376947450   T   T   T
  0.3750000000000000  0.7500000000000000  0.5195729376947450   T   T   T
  0.0000000000000000  0.5000000000000000  0.4804270623052551   F   F   F
  0.4999999999999999  0.5000000000000000  0.5587188130842349   T   T   T
  0.3750000000000000  0.7500000000000000  0.5978646884737249   T   T   T
  0.1250000000000000  0.7500000000000000  0.5978646884737249   T   T   T
  0.2499999999999999  0.5000000000000000  0.5587188130842349   T   T   T
  0.5000000000000000  0.0000000000000000  0.4021353115262751   F   F   F
  0.8750000000000000  0.2500000000000000  0.4412811869157651   F   F   F
  0.6250000000000000  0.2500000000000000  0.4412811869157651   F   F   F
  0.7500000000000000  0.0000000000000000  0.4021353115262751   F   F   F
  0.7500000000000000  0.0000000000000000  0.4804270623052549   F   F   F
  0.6250000000000000  0.2500000000000000  0.5195729376947450   T   T   T
  0.8750000000000000  0.2500000000000000  0.5195729376947450   T   T   T
  0.5000000000000000  0.0000000000000000  0.4804270623052551   F   F   F
  1.0000000000000000  0.0000000000000000  0.5587188130842349   T   T   T
  0.8750000000000000  0.2500000000000000  0.5978646884737249   T   T   T
  0.6250000000000000  0.2500000000000000  0.5978646884737249   T   T   T
  0.7499999999999999  0.0000000000000000  0.5587188130842349   T   T   T
  0.5000000000000000  0.5000000000000000  0.4021353115262751   F   F   F
  0.8750000000000000  0.7500000000000000  0.4412811869157651   F   F   F
  0.6250000000000000  0.7500000000000000  0.4412811869157651   F   F   F
  0.7500000000000000  0.5000000000000000  0.4021353115262751   F   F   F
  0.7500000000000000  0.5000000000000000  0.4804270623052549   F   F   F
  0.6250000000000000  0.7500000000000000  0.5195729376947450   T   T   T
  0.8750000000000000  0.7500000000000000  0.5195729376947450   T   T   T
  0.5000000000000000  0.5000000000000000  0.4804270623052551   F   F   F
  1.0000000000000000  0.5000000000000000  0.5587188130842349   T   T   T
  0.8750000000000000  0.7500000000000000  0.5978646884737249   T   T   T
  0.6250000000000000  0.7500000000000000  0.5978646884737249   T   T   T
  0.7499999999999999  0.5000000000000000  0.5587188130842349   T   T   T
