Ag C  H  O 
 1.0000000000000000
     9.2349610000000002    0.0000000000000000    0.0000000000000000
     7.3879690000000000    9.0483770000000003    0.0000000000000000
     0.0000000000000000    0.0000000000000000   37.5872940000000000
 Ag  C   H   O  
  40   1   3   1
Selective dynamics
Cartesian
  2.0996343643752002  0.1885080218820230 13.0269563384022202   F   F   F
  3.9466265137900267  2.4506021843783592 13.0269563384022202   F   F   F
  8.5641068873270925  4.3356806531253058 13.8699890582100913   F   F   F
  6.7171147379122651  2.0735864906289692 13.8699890582100913   F   F   F
 11.3345951114493317  3.9586649593759167 14.7130217780179713   F   F   F
  9.4876029620345061  1.6965707968795809 14.7130217780179713   F   F   F
  4.8701225884974395  3.5816492656265275 15.5560544978258513   F   F   F
  3.0231304390826144  1.3195551031301911 15.5560544978258513   F   F   F
  7.6406108126196806  3.2046335718771388 16.3990872176337241   T   T   T
  5.7936186632048532  0.9425394093808014 16.3990872176337241   T   T   T
 10.4110990367419181  2.8276178781277479 17.2421199374416076   T   T   T
  8.5641068873270942  0.5655237156314126 17.2421199374416076   T   T   T
  3.9466265137900267  2.4506021843783592 18.0851526572494841   T   T   T
  2.0996343643752002  0.1885080218820230 18.0851526572494841   T   T   T
  6.7171147379122660  2.0735864906289692 18.9281853770573605   T   T   T
  8.5641068873270925  4.3356806531253058 18.9281853770573605   T   T   T
  9.4876029620345079  1.6965707968795809 19.7712180968652333   T   T   T
 11.3345951114493317  3.9586649593759167 19.7712180968652333   T   T   T
  3.0231304390826153  1.3195551031301911 20.6142508166731098   T   T   T
  4.8701225884974422  3.5816492656265275 20.6142508166731098   T   T   T
  5.7936186632048532  4.7126963468746954 13.0269563384022202   F   F   F
  7.6406108126196788  6.9747905093710321 13.0269563384022202   F   F   F
 12.2580911861567436  8.8598689781179765 13.8699890582100913   F   F   F
 10.4110990367419181  6.5977748156216425 13.8699890582100913   F   F   F
 15.0285794102789847  8.4828532843685878 14.7130217780179713   F   F   F
 13.1815872608641591  6.2207591218722529 14.7130217780179713   F   F   F
  8.5641068873270925  8.1058375906191991 15.5560544978258513   F   F   F
  6.7171147379122669  5.8437434281228642 15.5560544978258513   F   F   F
 11.3345951114493335  7.7288218968698104 16.3990872176337241   T   T   T
  9.4876029620345061  5.4667277343734737 16.3990872176337241   T   T   T
 14.1050833355715710  7.3518062031204208 17.2421199374416076   T   T   T
 12.2580911861567472  5.0897120406240859 17.2421199374416076   T   T   T
  7.6406108126196788  6.9747905093710321 18.0851526572494841   T   T   T
  5.7936186632048532  4.7126963468746954 18.0851526572494841   T   T   T
 10.4110990367419181  6.5977748156216416 18.9281853770573605   T   T   T
 12.2580911861567454  8.8598689781179765 18.9281853770573605   T   T   T
 13.1815872608641627  6.2207591218722529 19.7712180968652333   T   T   T
 15.0285794102789847  8.4828532843685878 19.7712180968652333   T   T   T
  6.7171147379122678  5.8437434281228633 20.6142508166731098   T   T   T
  8.5641068873270960  8.1058375906191991 20.6142508166731098   T   T   T
  3.1506670123092313  1.2116395411692098 23.8736326854733178   T   T   T
  2.0625506088745329  1.1389494037348689 24.0790067311541662   T   T   T
  3.6975307183830086  0.5442613199502313 24.5603376615977815   T   T   T
  3.4399625115712542  2.2664920118719918 24.0792973333154947   T   T   T
  3.4399984281492788  0.9668206508430144 22.5382569200577088   T   T   T
