Ag C  H  O 
 1.0000000000000000
    11.6814040000000006    0.0000000000000000    0.0000000000000000
     0.0000000000000000    8.2599999999999998    0.0000000000000000
     0.0000000000000000    0.0000000000000000   37.3008779999999973
 Ag  C   H   O  
  48   1   3   1
Selective dynamics
Cartesian
 -0.0000000126008821  1.0324999999999998 13.5485255958630653   F   F   F
  4.3805264968497788  3.0974999999999997 15.0087010990132903   F   F   F
  1.4601754905493385  3.0974999999999997 15.0087010990132903   F   F   F
  2.9203509936995591  1.0324999999999998 13.5485255958630653   F   F   F
  2.9203509936995591  1.0324999999999998 16.4688766021635011   F   F   F
  1.4601754905493385  3.0974999999999997 17.9290521053137297   T   T   T
  4.3805264968497797  3.0974999999999997 17.9290521053137297   T   T   T
 -0.0000000126008821  1.0324999999999998 16.4688766021635118   F   F   F
  5.8407019999999994  1.0324999999999998 19.3892276084639441   T   T   T
  4.3805264968497797  3.0974999999999997 20.8494031116141691   T   T   T
  1.4601754905493385  3.0974999999999997 20.8494031116141691   T   T   T
  2.9203509936995578  1.0324999999999998 19.3892276084639441   T   T   T
 -0.0000000126008821  5.1624999999999996 13.5485255958630653   F   F   F
  4.3805264968497788  7.2275000000000000 15.0087010990132903   F   F   F
  1.4601754905493385  7.2275000000000000 15.0087010990132903   F   F   F
  2.9203509936995591  5.1624999999999996 13.5485255958630653   F   F   F
  2.9203509936995591  5.1624999999999996 16.4688766021635011   F   F   F
  1.4601754905493385  7.2275000000000000 17.9290521053137297   T   T   T
  4.3805264968497797  7.2275000000000000 17.9290521053137297   T   T   T
 -0.0000000126008821  5.1624999999999996 16.4688766021635118   F   F   F
  5.8407019999999994  5.1624999999999996 19.3892276084639441   T   T   T
  4.3805264968497797  7.2275000000000000 20.8494031116141691   T   T   T
  1.4601754905493385  7.2275000000000000 20.8494031116141691   T   T   T
  2.9203509936995578  5.1624999999999996 19.3892276084639441   T   T   T
  5.8407020000000003  1.0324999999999998 13.5485255958630653   F   F   F
 10.2212285094506612  3.0974999999999997 15.0087010990132903   F   F   F
  7.3008775031502209  3.0974999999999997 15.0087010990132903   F   F   F
  8.7610530063004415  1.0324999999999998 13.5485255958630653   F   F   F
  8.7610530063004415  1.0324999999999998 16.4688766021635011   F   F   F
  7.3008775031502209  3.0974999999999997 17.9290521053137297   T   T   T
 10.2212285094506612  3.0974999999999997 17.9290521053137297   T   T   T
  5.8407020000000003  1.0324999999999998 16.4688766021635118   F   F   F
 11.6814040126008827  1.0324999999999998 19.3892276084639441   T   T   T
 10.2212285094506612  3.0974999999999997 20.8494031116141691   T   T   T
  7.3008775031502209  3.0974999999999997 20.8494031116141691   T   T   T
  8.7610530063004397  1.0324999999999998 19.3892276084639441   T   T   T
  5.8407020000000003  5.1624999999999996 13.5485255958630653   F   F   F
 10.2212285094506612  7.2275000000000000 15.0087010990132903   F   F   F
  7.3008775031502209  7.2275000000000000 15.0087010990132903   F   F   F
  8.7610530063004415  5.1624999999999996 13.5485255958630653   F   F   F
  8.7610530063004415  5.1624999999999996 16.4688766021635011   F   F   F
  7.3008775031502209  7.2275000000000000 17.9290521053137297   T   T   T
 10.2212285094506612  7.2275000000000000 17.9290521053137297   T   T   T
  5.8407020000000003  5.1624999999999996 16.4688766021635118   F   F   F
 11.6814040126008827  5.1624999999999996 19.3892276084639441   T   T   T
 10.2212285094506612  7.2275000000000000 20.8494031116141691   T   T   T
  7.3008775031502209  7.2275000000000000 20.8494031116141691   T   T   T
  8.7610530063004397  5.1624999999999996 19.3892276084639441   T   T   T
  4.3805264968497797  4.4856200928276619 22.8494031116141691   T   T   T
  5.4055742485494340  4.8971708420888769 22.9559993107078526   T   T   T
  3.9061353533560039  4.9145437430843915 21.9510741781842320   T   T   T
  3.8160142314866308  4.8092124994139196 23.7523524041369321   T   T   T
  4.3805264968497797  3.0974999999999993 22.8494031116141691   T   T   T
