Ag C  H  O 
 1.0000000000000000
     9.2349610000000002    0.0000000000000000    0.0000000000000000
     7.3879690000000000    9.0483770000000003    0.0000000000000000
     0.0000000000000000    0.0000000000000000   37.5872940000000000
 Ag  C   H   O  
  40   1   3   1
Selective dynamics
Cartesian
  1.2286850371030802  0.1885080218820230 13.4698238169943174   F   F   F
  3.0756771865179067  2.4506021843783592 13.4698238169943174   F   F   F
  7.6931575600549715  4.3356806531253058 14.3128565368021903   F   F   F
  5.8461654106401451  2.0735864906289692 14.3128565368021903   F   F   F
 10.4636457841772117  3.9586649593759167 15.1558892566100702   F   F   F
  8.6166536347623861  1.6965707968795809 15.1558892566100702   F   F   F
  3.9991732612253195  3.5816492656265275 15.9989219764179502   F   F   F
  2.1521811118104943  1.3195551031301911 15.9989219764179502   F   F   F
  6.7696614853475605  3.2046335718771388 16.8419546962258231   T   T   T
  4.9226693359327331  0.9425394093808014 16.8419546962258231   T   T   T
  9.5401497094697980  2.8276178781277479 17.6849874160337066   T   T   T
  7.6931575600549742  0.5655237156314126 17.6849874160337066   T   T   T
  3.0756771865179067  2.4506021843783592 18.5280201358415830   T   T   T
  1.2286850371030802  0.1885080218820230 18.5280201358415830   T   T   T
  5.8461654106401459  2.0735864906289692 19.3710528556494594   T   T   T
  7.6931575600549733  4.3356806531253058 19.3710528556494594   T   T   T
  8.6166536347623879  1.6965707968795809 20.2140855754573323   T   T   T
 10.4636457841772117  3.9586649593759167 20.2140855754573323   T   T   T
  2.1521811118104952  1.3195551031301911 21.0571182952652087   T   T   T
  3.9991732612253221  3.5816492656265275 21.0571182952652087   T   T   T
  4.9226693359327331  4.7126963468746954 13.4698238169943174   F   F   F
  6.7696614853475587  6.9747905093710321 13.4698238169943174   F   F   F
 11.3871418588846236  8.8598689781179765 14.3128565368021903   F   F   F
  9.5401497094697980  6.5977748156216425 14.3128565368021903   F   F   F
 14.1576300830068647  8.4828532843685878 15.1558892566100702   F   F   F
 12.3106379335920391  6.2207591218722529 15.1558892566100702   F   F   F
  7.6931575600549724  8.1058375906191991 15.9989219764179502   F   F   F
  5.8461654106401468  5.8437434281228642 15.9989219764179502   F   F   F
 10.4636457841772135  7.7288218968698104 16.8419546962258231   T   T   T
  8.6166536347623861  5.4667277343734737 16.8419546962258231   T   T   T
 13.2341340082994510  7.3518062031204208 17.6849874160337066   T   T   T
 11.3871418588846272  5.0897120406240859 17.6849874160337066   T   T   T
  6.7696614853475587  6.9747905093710321 18.5280201358415830   T   T   T
  4.9226693359327331  4.7126963468746954 18.5280201358415830   T   T   T
  9.5401497094697980  6.5977748156216416 19.3710528556494594   T   T   T
 11.3871418588846254  8.8598689781179765 19.3710528556494594   T   T   T
 12.3106379335920426  6.2207591218722529 20.2140855754573323   T   T   T
 14.1576300830068647  8.4828532843685878 20.2140855754573323   T   T   T
  5.8461654106401477  5.8437434281228633 21.0571182952652087   T   T   T
  7.6931575600549751  8.1058375906191991 21.0571182952652087   T   T   T
  9.3806857519471585  2.9564156899729586 23.4064293061174844   T   T   T
  8.5532860869961027  3.1596159064495595 24.1174701830056826   T   T   T
  9.7251501393429223  1.9166741521693549 23.5340974219260808   T   T   T
 10.2061485302366428  3.6521978817027598 23.6769878238975693   T   T   T
  9.0189233849788835  3.2486083709857958 22.0985192101552563   T   T   T
