Ag C  H  O 
 1.0000000000000000
     9.2349610000000002    0.0000000000000000    0.0000000000000000
     7.3879690000000000    9.0483770000000003    0.0000000000000000
     0.0000000000000000    0.0000000000000000   37.5872940000000000
 Ag  C   H   O  
  40   1   3   1
Selective dynamics
Cartesian
  1.0685063455144634  0.1885080218820230 13.8133321940113092   F   F   F
  2.9154984949292899  2.4506021843783592 13.8133321940113092   F   F   F
  7.5329788684663548  4.3356806531253058 14.6563649138191820   F   F   F
  5.6859867190515283  2.0735864906289692 14.6563649138191820   F   F   F
 10.3034670925885941  3.9586649593759167 15.4993976336270620   F   F   F
  8.4564749431737702  1.6965707968795809 15.4993976336270620   F   F   F
  3.8389945696367027  3.5816492656265275 16.3424303534349420   F   F   F
  1.9920024202218776  1.3195551031301911 16.3424303534349420   F   F   F
  6.6094827937589438  3.2046335718771388 17.1854630732428149   T   T   T
  4.7624906443441173  0.9425394093808014 17.1854630732428149   T   T   T
  9.3799710178811821  2.8276178781277479 18.0284957930506984   T   T   T
  7.5329788684663574  0.5655237156314126 18.0284957930506984   T   T   T
  2.9154984949292899  2.4506021843783592 18.8715285128585748   T   T   T
  1.0685063455144634  0.1885080218820230 18.8715285128585748   T   T   T
  5.6859867190515292  2.0735864906289692 19.7145612326664512   T   T   T
  7.5329788684663566  4.3356806531253058 19.7145612326664512   T   T   T
  8.4564749431737702  1.6965707968795809 20.5575939524743241   T   T   T
 10.3034670925885941  3.9586649593759167 20.5575939524743241   T   T   T
  1.9920024202218785  1.3195551031301911 21.4006266722822005   T   T   T
  3.8389945696367054  3.5816492656265275 21.4006266722822005   T   T   T
  4.7624906443441155  4.7126963468746954 13.8133321940113092   F   F   F
  6.6094827937589420  6.9747905093710321 13.8133321940113092   F   F   F
 11.2269631672960060  8.8598689781179765 14.6563649138191820   F   F   F
  9.3799710178811821  6.5977748156216425 14.6563649138191820   F   F   F
 13.9974513914182488  8.4828532843685878 15.4993976336270620   F   F   F
 12.1504592420034214  6.2207591218722529 15.4993976336270620   F   F   F
  7.5329788684663557  8.1058375906191991 16.3424303534349420   F   F   F
  5.6859867190515301  5.8437434281228642 16.3424303534349420   F   F   F
 10.3034670925885976  7.7288218968698104 17.1854630732428149   T   T   T
  8.4564749431737702  5.4667277343734737 17.1854630732428149   T   T   T
 13.0739553167108333  7.3518062031204208 18.0284957930506984   T   T   T
 11.2269631672960095  5.0897120406240859 18.0284957930506984   T   T   T
  6.6094827937589420  6.9747905093710321 18.8715285128585748   T   T   T
  4.7624906443441155  4.7126963468746954 18.8715285128585748   T   T   T
  9.3799710178811821  6.5977748156216416 19.7145612326664512   T   T   T
 11.2269631672960095  8.8598689781179765 19.7145612326664512   T   T   T
 12.1504592420034250  6.2207591218722529 20.5575939524743241   T   T   T
 13.9974513914182488  8.4828532843685878 20.5575939524743241   T   T   T
  5.6859867190515310  5.8437434281228633 21.4006266722822005   T   T   T
  7.5329788684663583  8.1058375906191991 21.4006266722822005   T   T   T
  8.4969823264219926  1.9406982750235695 22.7342202681850836   T   T   T
  9.3243819913730519  1.2296573981353696 22.5310200517084844   T   T   T
  8.1525179390262288  1.8130301592149731 23.7739618059886908   T   T   T
  7.6715195481325100  1.6701397572434828 22.0384380764552859   T   T   T
  8.8587446933902676  3.2486083709857958 22.4420275871722481   T   T   T
