Ag C  H  O 
 1.0000000000000000
     9.2349610000000002    0.0000000000000000    0.0000000000000000
     7.3879690000000000    9.0483770000000003    0.0000000000000000
     0.0000000000000000    0.0000000000000000   37.5872940000000000
 Ag  C   H   O  
  40   1   3   1
Selective dynamics
Cartesian
  1.5528448100308498  0.1938948294685972 14.3285874665373782   F   F   F
  3.3998369594456763  2.4559889919649334 14.3285874665373782   F   F   F
  8.0173173329827421  4.3410674607118800 15.1716201863452511   F   F   F
  6.1703251835679147  2.0789732982155433 15.1716201863452511   F   F   F
 10.7878055571049813  3.9640517669624908 16.0146529061531311   F   F   F
  8.9408134076901558  1.7019576044661551 16.0146529061531311   F   F   F
  4.3233330341530891  3.5870360732131017 16.8576856259610111   F   F   F
  2.4763408847382640  1.3249419107167653 16.8576856259610111   F   F   F
  7.0938212582753302  3.2100203794637130 17.7007183457688839   T   T   T
  5.2468291088605028  0.9479262169673756 17.7007183457688839   T   T   T
  9.8643094823975677  2.8330046857143221 18.5437510655767674   T   T   T
  8.0173173329827438  0.5709105232179867 18.5437510655767674   T   T   T
  3.3998369594456763  2.4559889919649334 19.3867837853846439   T   T   T
  1.5528448100308498  0.1938948294685972 19.3867837853846439   T   T   T
  6.1703251835679156  2.0789732982155433 20.2298165051925203   T   T   T
  8.0173173329827421  4.3410674607118800 20.2298165051925203   T   T   T
  8.9408134076901575  1.7019576044661551 21.0728492250003931   T   T   T
 10.7878055571049813  3.9640517669624908 21.0728492250003931   T   T   T
  2.4763408847382649  1.3249419107167653 21.9158819448082696   T   T   T
  4.3233330341530918  3.5870360732131017 21.9158819448082696   T   T   T
  5.2468291088605028  4.7180831544612696 14.3285874665373782   F   F   F
  7.0938212582753284  6.9801773169576062 14.3285874665373782   F   F   F
 11.7113016318123933  8.8652557857045515 15.1716201863452511   F   F   F
  9.8643094823975677  6.6031616232082166 15.1716201863452511   F   F   F
 14.4817898559346343  8.4882400919551628 16.0146529061531311   F   F   F
 12.6347977065198087  6.2261459294588271 16.0146529061531311   F   F   F
  8.0173173329827421  8.1112243982057741 16.8576856259610111   F   F   F
  6.1703251835679165  5.8491302357094384 16.8576856259610111   F   F   F
 10.7878055571049831  7.7342087044563845 17.7007183457688839   T   T   T
  8.9408134076901558  5.4721145419600479 17.7007183457688839   T   T   T
 13.5582937812272206  7.3571930107069949 18.5437510655767674   T   T   T
 11.7113016318123968  5.0950988482106601 18.5437510655767674   T   T   T
  7.0938212582753284  6.9801773169576062 19.3867837853846439   T   T   T
  5.2468291088605028  4.7180831544612696 19.3867837853846439   T   T   T
  9.8643094823975677  6.6031616232082158 20.2298165051925203   T   T   T
 11.7113016318123950  8.8652557857045515 20.2298165051925203   T   T   T
 12.6347977065198123  6.2261459294588271 21.0728492250003931   T   T   T
 14.4817898559346343  8.4882400919551628 21.0728492250003931   T   T   T
  6.1703251835679174  5.8491302357094375 21.9158819448082696   T   T   T
  8.0173173329827456  8.1112243982057741 21.9158819448082696   T   T   T
  7.4748000429131176  0.7466429056179784 22.4661615103054153   T   T   T
  6.5347095454732900  0.1831212142954488 22.6397495921991236   T   T   T
  7.8846995868723324  0.4781213580496608 21.4782870902672194   T   T   T
  8.1862811007327494  0.4235784246769789 23.2587065334626217   T   T   T
  7.2915656839099503  2.1138531227954598 22.6212059679234798   T   T   T
