Gamma-point only
1
reciprocal
0.0  0.0  0.0  1.0
