Ag C  H  O 
 1.0000000000000000
     9.2349610000000002    0.0000000000000000    0.0000000000000000
     7.3879690000000000    9.0483770000000003    0.0000000000000000
     0.0000000000000000    0.0000000000000000   37.5872940000000000
 Ag  C   H   O  
  40   1   3   1
Selective dynamics
Cartesian
  1.6930764621686449  0.1885080218820230 13.0268857156121314   F   F   F
  3.5400686115834712  2.4506021843783592 13.0268857156121314   F   F   F
  8.1575489851205365  4.3356806531253058 13.8699184354200007   F   F   F
  6.3105568357057100  2.0735864906289692 13.8699184354200007   F   F   F
 10.9280372092427758  3.9586649593759167 14.7129511552278807   F   F   F
  9.0810450598279502  1.6965707968795809 14.7129511552278807   F   F   F
  4.4635646862908844  3.5816492656265275 15.5559838750357606   F   F   F
  2.6165725368760588  1.3195551031301911 15.5559838750357606   F   F   F
  7.2340529104131255  3.2046335718771388 16.3990165948436335   T   T   T
  5.3870607609982981  0.9425394093808014 16.3990165948436335   T   T   T
 10.0045411345353621  2.8276178781277479 17.2420493146515170   T   T   T
  8.1575489851205383  0.5655237156314126 17.2420493146515170   T   T   T
  3.5400686115834712  2.4506021843783592 18.0850820344593934   T   T   T
  1.6930764621686449  0.1885080218820230 18.0850820344593934   T   T   T
  6.3105568357057109  2.0735864906289692 18.9281147542672699   T   T   T
  8.1575489851205383  4.3356806531253058 18.9281147542672699   T   T   T
  9.0810450598279520  1.6965707968795809 19.7711474740751427   T   T   T
 10.9280372092427758  3.9586649593759167 19.7711474740751427   T   T   T
  2.6165725368760597  1.3195551031301911 20.6141801938830191   T   T   T
  4.4635646862908871  3.5816492656265275 20.6141801938830191   T   T   T
  5.3870607609982972  4.7126963468746954 13.0268857156121314   F   F   F
  7.2340529104131237  6.9747905093710321 13.0268857156121314   F   F   F
 11.8515332839501877  8.8598689781179765 13.8699184354200007   F   F   F
 10.0045411345353621  6.5977748156216425 13.8699184354200007   F   F   F
 14.6220215080724287  8.4828532843685878 14.7129511552278807   F   F   F
 12.7750293586576031  6.2207591218722529 14.7129511552278807   F   F   F
  8.1575489851205365  8.1058375906191991 15.5559838750357606   F   F   F
  6.3105568357057118  5.8437434281228642 15.5559838750357606   F   F   F
 10.9280372092427775  7.7288218968698104 16.3990165948436335   T   T   T
  9.0810450598279502  5.4667277343734737 16.3990165948436335   T   T   T
 13.6985254333650150  7.3518062031204208 17.2420493146515170   T   T   T
 11.8515332839501912  5.0897120406240859 17.2420493146515170   T   T   T
  7.2340529104131237  6.9747905093710321 18.0850820344593934   T   T   T
  5.3870607609982972  4.7126963468746954 18.0850820344593934   T   T   T
 10.0045411345353621  6.5977748156216416 18.9281147542672699   T   T   T
 11.8515332839501895  8.8598689781179765 18.9281147542672699   T   T   T
 12.7750293586576067  6.2207591218722529 19.7711474740751427   T   T   T
 14.6220215080724287  8.4828532843685878 19.7711474740751427   T   T   T
  6.3105568357057127  5.8437434281228633 20.6141801938830191   T   T   T
  8.1575489851205401  8.1058375906191991 20.6141801938830191   T   T   T
  4.2522507257635995  1.8401603722239654 23.8698698587064477   T   T   T
  5.3402246347690001  1.9168446472092802 24.0745451074217911   T   T   T
  3.7030038343026428  2.5015996077476528 24.5604082843878686   T   T   T
  3.9680182701506199  0.7829796053782472 24.0705793642132626   T   T   T
  3.9604681810602171  2.0902596962554361 22.5360067972052711   T   T   T
