Ag C  H  O 
 1.0000000000000000
     9.2349610000000002    0.0000000000000000    0.0000000000000000
     7.3879690000000000    9.0483770000000003    0.0000000000000000
     0.0000000000000000    0.0000000000000000   37.5872940000000000
 Ag  C   H   O  
  40   1   3   1
Selective dynamics
Cartesian
  1.7431480393636523  0.2498329282866152 13.8334165034573218   F   F   F
  3.5901401887784785  2.5119270907829514 13.8334165034573218   F   F   F
  8.2076205623155438  4.3970055595298980 14.6764492232651911   F   F   F
  6.3606284129007173  2.1349113970335614 14.6764492232651911   F   F   F
 10.9781087864377831  4.0199898657805084 15.5194819430730711   F   F   F
  9.1311166370229575  1.7578957032841731 15.5194819430730711   F   F   F
  4.5136362634858918  3.6429741720311197 16.3625146628809510   F   F   F
  2.6666441140710662  1.3808800095347833 16.3625146628809510   F   F   F
  7.2841244876081328  3.2659584782817310 17.2055473826888239   T   T   T
  5.4371323381933054  1.0038643157853935 17.2055473826888239   T   T   T
 10.0546127117303694  2.8889427845323401 18.0485801024967074   T   T   T
  8.2076205623155456  0.6268486220360048 18.0485801024967074   T   T   T
  3.5901401887784785  2.5119270907829514 18.8916128223045838   T   T   T
  1.7431480393636523  0.2498329282866152 18.8916128223045838   T   T   T
  6.3606284129007182  2.1349113970335614 19.7346455421124602   T   T   T
  8.2076205623155456  4.3970055595298980 19.7346455421124602   T   T   T
  9.1311166370229593  1.7578957032841731 20.5776782619203331   T   T   T
 10.9781087864377831  4.0199898657805084 20.5776782619203331   T   T   T
  2.6666441140710671  1.3808800095347833 21.4207109817282095   T   T   T
  4.5136362634858944  3.6429741720311197 21.4207109817282095   T   T   T
  5.4371323381933045  4.7740212532792876 13.8334165034573218   F   F   F
  7.2841244876081310  7.0361154157756243 13.8334165034573218   F   F   F
 11.9016048611451950  8.9211938845225696 14.6764492232651911   F   F   F
 10.0546127117303694  6.6590997220262347 14.6764492232651911   F   F   F
 14.6720930852674361  8.5441781907731809 15.5194819430730711   F   F   F
 12.8251009358526105  6.2820840282768451 15.5194819430730711   F   F   F
  8.2076205623155438  8.1671624970237922 16.3625146628809510   F   F   F
  6.3606284129007191  5.9050683345274564 16.3625146628809510   F   F   F
 10.9781087864377849  7.7901468032744026 17.2055473826888239   T   T   T
  9.1311166370229575  5.5280526407780659 17.2055473826888239   T   T   T
 13.7485970105600224  7.4131311095250130 18.0485801024967074   T   T   T
 11.9016048611451986  5.1510369470286781 18.0485801024967074   T   T   T
  7.2841244876081310  7.0361154157756243 18.8916128223045838   T   T   T
  5.4371323381933045  4.7740212532792876 18.8916128223045838   T   T   T
 10.0546127117303694  6.6590997220262338 19.7346455421124602   T   T   T
 11.9016048611451968  8.9211938845225696 19.7346455421124602   T   T   T
 12.8251009358526140  6.2820840282768451 20.5776782619203331   T   T   T
 14.6720930852674361  8.5441781907731809 20.5776782619203331   T   T   T
  6.3606284129007200  5.9050683345274555 21.4207109817282095   T   T   T
  8.2076205623155474  8.1671624970237922 21.4207109817282095   T   T   T
  4.3023223029586068  0.8177215411588499 23.0924382610189909   T   T   T
  5.3902962119640074  0.6130462924435083 23.1691225360043056   T   T   T
  3.7530754114976501  0.1271831154774307 23.7538774965426782   T   T   T
  4.0180898473456272  0.6170120356520368 22.0352574941732726   T   T   T
  4.0105397582552245  2.1515846026600283 23.3425375850504615   T   T   T
